%kjob l301
%chk=structure-2-Vc-1.2.chk
%nproc=1
%mem=1000mb
#p wb97xd def2tzvp
# scrf=(iefpcm,solvent=cyclohexane,read) nosym guess=only pop=none

title

0 1
 C    1.10712900   -1.48465400    0.00000000
 C   -0.00001100   -0.72877000    0.00000000
 C    0.00000000    0.72875800    0.00000000
 C   -1.10712300    1.48466300    0.00000000
 H    2.09998900   -1.03986800    0.00000000
 H    1.05995700   -2.56940600    0.00000000
 H   -0.97811200   -1.21104800    0.00000000
 H    0.97811000    1.21101800    0.00000000
 H   -2.09999700    1.03991100    0.00000000
 H   -1.05991600    2.56941400    2.00000000

qrep pcmdoc geomview nodis nocav g03defaults tsare=0.075
nsfe=10
nvesolv=36 solvmw=84.1595 rsolv=2.815
eps=2.0165 rhos=0.7781                  

     1.10712900   -1.48465400    0.00000000  1.7  1.2
    -0.00001100   -0.72877000    0.00000000  1.7  1.2
     0.00000000    0.72875800    0.00000000  1.7  1.2
    -1.10712300    1.48466300    0.00000000  1.7  1.2
     2.09998900   -1.03986800    0.00000000  1.2  1.2
     1.05995700   -2.56940600    0.00000000  1.2  1.2
    -0.97811200   -1.21104800    0.00000000  1.2  1.2
     0.97811000    1.21101800    0.00000000  1.2  1.2
    -2.09999700    1.03991100    0.00000000  1.2  1.2
    -1.05991600    2.56941400    2.00000000  1.2  1.2

--link1--
%kjob l301
%chk=structure-2-Vc-1.15.chk
%nproc=1
%mem=1000mb
#p wb97xd def2tzvp
# scrf=(iefpcm,solvent=cyclohexane,read) nosym guess=only pop=none

title

0 1
 C    1.10712900   -1.48465400    0.00000000
 C   -0.00001100   -0.72877000    0.00000000
 C    0.00000000    0.72875800    0.00000000
 C   -1.10712300    1.48466300    0.00000000
 H    2.09998900   -1.03986800    0.00000000
 H    1.05995700   -2.56940600    0.00000000
 H   -0.97811200   -1.21104800    0.00000000
 H    0.97811000    1.21101800    0.00000000
 H   -2.09999700    1.03991100    0.00000000
 H   -1.05991600    2.56941400    2.00000000

qrep pcmdoc geomview nodis nocav g03defaults tsare=0.075
nsfe=10
nvesolv=36 solvmw=84.1595 rsolv=2.815
eps=2.0165 rhos=0.7781                  

     1.10712900   -1.48465400    0.00000000  1.7  1.15
    -0.00001100   -0.72877000    0.00000000  1.7  1.15
     0.00000000    0.72875800    0.00000000  1.7  1.15
    -1.10712300    1.48466300    0.00000000  1.7  1.15
     2.09998900   -1.03986800    0.00000000  1.2  1.15
     1.05995700   -2.56940600    0.00000000  1.2  1.15
    -0.97811200   -1.21104800    0.00000000  1.2  1.15
     0.97811000    1.21101800    0.00000000  1.2  1.15
    -2.09999700    1.03991100    0.00000000  1.2  1.15
    -1.05991600    2.56941400    2.00000000  1.2  1.15

--link1--
%kjob l301
%chk=structure-2-Vc-1.1.chk
%nproc=1
%mem=1000mb
#p wb97xd def2tzvp
# scrf=(iefpcm,solvent=cyclohexane,read) nosym guess=only pop=none

title

0 1
 C    1.10712900   -1.48465400    0.00000000
 C   -0.00001100   -0.72877000    0.00000000
 C    0.00000000    0.72875800    0.00000000
 C   -1.10712300    1.48466300    0.00000000
 H    2.09998900   -1.03986800    0.00000000
 H    1.05995700   -2.56940600    0.00000000
 H   -0.97811200   -1.21104800    0.00000000
 H    0.97811000    1.21101800    0.00000000
 H   -2.09999700    1.03991100    0.00000000
 H   -1.05991600    2.56941400    2.00000000

qrep pcmdoc geomview nodis nocav g03defaults tsare=0.075
nsfe=10
nvesolv=36 solvmw=84.1595 rsolv=2.815
eps=2.0165 rhos=0.7781                  

     1.10712900   -1.48465400    0.00000000  1.7  1.1
    -0.00001100   -0.72877000    0.00000000  1.7  1.1
     0.00000000    0.72875800    0.00000000  1.7  1.1
    -1.10712300    1.48466300    0.00000000  1.7  1.1
     2.09998900   -1.03986800    0.00000000  1.2  1.1
     1.05995700   -2.56940600    0.00000000  1.2  1.1
    -0.97811200   -1.21104800    0.00000000  1.2  1.1
     0.97811000    1.21101800    0.00000000  1.2  1.1
    -2.09999700    1.03991100    0.00000000  1.2  1.1
    -1.05991600    2.56941400    2.00000000  1.2  1.1

--link1--
%kjob l301
%chk=structure-2-Vc-1.05.chk
%nproc=1
%mem=1000mb
#p wb97xd def2tzvp
# scrf=(iefpcm,solvent=cyclohexane,read) nosym guess=only pop=none

title

0 1
 C    1.10712900   -1.48465400    0.00000000
 C   -0.00001100   -0.72877000    0.00000000
 C    0.00000000    0.72875800    0.00000000
 C   -1.10712300    1.48466300    0.00000000
 H    2.09998900   -1.03986800    0.00000000
 H    1.05995700   -2.56940600    0.00000000
 H   -0.97811200   -1.21104800    0.00000000
 H    0.97811000    1.21101800    0.00000000
 H   -2.09999700    1.03991100    0.00000000
 H   -1.05991600    2.56941400    2.00000000

qrep pcmdoc geomview nodis nocav g03defaults tsare=0.075
nsfe=10
nvesolv=36 solvmw=84.1595 rsolv=2.815
eps=2.0165 rhos=0.7781                  

     1.10712900   -1.48465400    0.00000000  1.7  1.05
    -0.00001100   -0.72877000    0.00000000  1.7  1.05
     0.00000000    0.72875800    0.00000000  1.7  1.05
    -1.10712300    1.48466300    0.00000000  1.7  1.05
     2.09998900   -1.03986800    0.00000000  1.2  1.05
     1.05995700   -2.56940600    0.00000000  1.2  1.05
    -0.97811200   -1.21104800    0.00000000  1.2  1.05
     0.97811000    1.21101800    0.00000000  1.2  1.05
    -2.09999700    1.03991100    0.00000000  1.2  1.05
    -1.05991600    2.56941400    2.00000000  1.2  1.05

--link1--
%kjob l301
%chk=structure-2-Vc-1.0.chk
%nproc=1
%mem=1000mb
#p wb97xd def2tzvp
# scrf=(iefpcm,solvent=cyclohexane,read) nosym guess=only pop=none

title

0 1
 C    1.10712900   -1.48465400    0.00000000
 C   -0.00001100   -0.72877000    0.00000000
 C    0.00000000    0.72875800    0.00000000
 C   -1.10712300    1.48466300    0.00000000
 H    2.09998900   -1.03986800    0.00000000
 H    1.05995700   -2.56940600    0.00000000
 H   -0.97811200   -1.21104800    0.00000000
 H    0.97811000    1.21101800    0.00000000
 H   -2.09999700    1.03991100    0.00000000
 H   -1.05991600    2.56941400    2.00000000

qrep pcmdoc geomview nodis nocav g03defaults tsare=0.075
nsfe=10
nvesolv=36 solvmw=84.1595 rsolv=2.815
eps=2.0165 rhos=0.7781                  

     1.10712900   -1.48465400    0.00000000  1.7  1.0
    -0.00001100   -0.72877000    0.00000000  1.7  1.0
     0.00000000    0.72875800    0.00000000  1.7  1.0
    -1.10712300    1.48466300    0.00000000  1.7  1.0
     2.09998900   -1.03986800    0.00000000  1.2  1.0
     1.05995700   -2.56940600    0.00000000  1.2  1.0
    -0.97811200   -1.21104800    0.00000000  1.2  1.0
     0.97811000    1.21101800    0.00000000  1.2  1.0
    -2.09999700    1.03991100    0.00000000  1.2  1.0
    -1.05991600    2.56941400    2.00000000  1.2  1.0

--link1--
%kjob l301
%chk=structure-2-Vc-0.975.chk
%nproc=1
%mem=1000mb
#p wb97xd def2tzvp
# scrf=(iefpcm,solvent=cyclohexane,read) nosym guess=only pop=none

title

0 1
 C    1.10712900   -1.48465400    0.00000000
 C   -0.00001100   -0.72877000    0.00000000
 C    0.00000000    0.72875800    0.00000000
 C   -1.10712300    1.48466300    0.00000000
 H    2.09998900   -1.03986800    0.00000000
 H    1.05995700   -2.56940600    0.00000000
 H   -0.97811200   -1.21104800    0.00000000
 H    0.97811000    1.21101800    0.00000000
 H   -2.09999700    1.03991100    0.00000000
 H   -1.05991600    2.56941400    2.00000000

qrep pcmdoc geomview nodis nocav g03defaults tsare=0.075
nsfe=10
nvesolv=36 solvmw=84.1595 rsolv=2.815
eps=2.0165 rhos=0.7781                  

     1.10712900   -1.48465400    0.00000000  1.7  0.975
    -0.00001100   -0.72877000    0.00000000  1.7  0.975
     0.00000000    0.72875800    0.00000000  1.7  0.975
    -1.10712300    1.48466300    0.00000000  1.7  0.975
     2.09998900   -1.03986800    0.00000000  1.2  0.975
     1.05995700   -2.56940600    0.00000000  1.2  0.975
    -0.97811200   -1.21104800    0.00000000  1.2  0.975
     0.97811000    1.21101800    0.00000000  1.2  0.975
    -2.09999700    1.03991100    0.00000000  1.2  0.975
    -1.05991600    2.56941400    2.00000000  1.2  0.975

--link1--
%kjob l301
%chk=structure-2-Vc-0.95.chk
%nproc=1
%mem=1000mb
#p wb97xd def2tzvp
# scrf=(iefpcm,solvent=cyclohexane,read) nosym guess=only pop=none

title

0 1
 C    1.10712900   -1.48465400    0.00000000
 C   -0.00001100   -0.72877000    0.00000000
 C    0.00000000    0.72875800    0.00000000
 C   -1.10712300    1.48466300    0.00000000
 H    2.09998900   -1.03986800    0.00000000
 H    1.05995700   -2.56940600    0.00000000
 H   -0.97811200   -1.21104800    0.00000000
 H    0.97811000    1.21101800    0.00000000
 H   -2.09999700    1.03991100    0.00000000
 H   -1.05991600    2.56941400    2.00000000

qrep pcmdoc geomview nodis nocav g03defaults tsare=0.075
nsfe=10
nvesolv=36 solvmw=84.1595 rsolv=2.815
eps=2.0165 rhos=0.7781                  

     1.10712900   -1.48465400    0.00000000  1.7  0.95
    -0.00001100   -0.72877000    0.00000000  1.7  0.95
     0.00000000    0.72875800    0.00000000  1.7  0.95
    -1.10712300    1.48466300    0.00000000  1.7  0.95
     2.09998900   -1.03986800    0.00000000  1.2  0.95
     1.05995700   -2.56940600    0.00000000  1.2  0.95
    -0.97811200   -1.21104800    0.00000000  1.2  0.95
     0.97811000    1.21101800    0.00000000  1.2  0.95
    -2.09999700    1.03991100    0.00000000  1.2  0.95
    -1.05991600    2.56941400    2.00000000  1.2  0.95

