%kjob l301
%chk=structure-3-Gcav-1.2.chk
%nproc=8
%mem=1gb
#p wb97xd def2tzvp
# scrf=(iefpcm,solvent=cyclohexane,read) nosym guess=only pop=none

title

0 1
 C    1.10712900   -1.48465400    0.00000000
 C   -0.00001100   -0.72877000    0.00000000
 C    0.00000000    0.72875800    0.00000000
 C   -1.10712300    1.48466300    0.00000000
 H    2.09998900   -1.03986800    0.00000000
 H    1.05995700   -2.56940600    0.00000000
 H   -0.97811200   -1.21104800    0.00000000
 H    0.97811000    1.21101800    0.00000000
 H   -2.09999700    1.03991100    0.00000000
 H   -1.05991600    2.56941400    3.00000000

norep pcmdoc geomview nodis cav g03defaults noaddsph tsare=0.075
nsfe=10
Vmol=108.16026217709805 rsolv=2.815

 1  2.04  1.0
 2  2.04  1.0
 3  2.04  1.0
 4  2.04  1.0
 5  1.44  1.0
 6  1.44  1.0
 7  1.44  1.0
 8  1.44  1.0
 9  1.44  1.0
 10  1.44  1.0

--link1--
%kjob l301
%chk=structure-3-Gcav-1.15.chk
%nproc=8
%mem=1gb
#p wb97xd def2tzvp
# scrf=(iefpcm,solvent=cyclohexane,read) nosym guess=only pop=none

title

0 1
 C    1.10712900   -1.48465400    0.00000000
 C   -0.00001100   -0.72877000    0.00000000
 C    0.00000000    0.72875800    0.00000000
 C   -1.10712300    1.48466300    0.00000000
 H    2.09998900   -1.03986800    0.00000000
 H    1.05995700   -2.56940600    0.00000000
 H   -0.97811200   -1.21104800    0.00000000
 H    0.97811000    1.21101800    0.00000000
 H   -2.09999700    1.03991100    0.00000000
 H   -1.05991600    2.56941400    3.00000000

norep pcmdoc geomview nodis cav g03defaults noaddsph tsare=0.075
nsfe=10
Vmol=101.87003977891717 rsolv=2.815

 1  2.04  1.0
 2  2.04  1.0
 3  2.04  1.0
 4  2.04  1.0
 5  1.44  1.0
 6  1.44  1.0
 7  1.44  1.0
 8  1.44  1.0
 9  1.44  1.0
 10  1.44  1.0

--link1--
%kjob l301
%chk=structure-3-Gcav-1.1.chk
%nproc=8
%mem=1gb
#p wb97xd def2tzvp
# scrf=(iefpcm,solvent=cyclohexane,read) nosym guess=only pop=none

title

0 1
 C    1.10712900   -1.48465400    0.00000000
 C   -0.00001100   -0.72877000    0.00000000
 C    0.00000000    0.72875800    0.00000000
 C   -1.10712300    1.48466300    0.00000000
 H    2.09998900   -1.03986800    0.00000000
 H    1.05995700   -2.56940600    0.00000000
 H   -0.97811200   -1.21104800    0.00000000
 H    0.97811000    1.21101800    0.00000000
 H   -2.09999700    1.03991100    0.00000000
 H   -1.05991600    2.56941400    3.00000000

norep pcmdoc geomview nodis cav g03defaults noaddsph tsare=0.075
nsfe=10
Vmol=95.98529880311915 rsolv=2.815

 1  2.04  1.0
 2  2.04  1.0
 3  2.04  1.0
 4  2.04  1.0
 5  1.44  1.0
 6  1.44  1.0
 7  1.44  1.0
 8  1.44  1.0
 9  1.44  1.0
 10  1.44  1.0

--link1--
%kjob l301
%chk=structure-3-Gcav-1.05.chk
%nproc=8
%mem=1gb
#p wb97xd def2tzvp
# scrf=(iefpcm,solvent=cyclohexane,read) nosym guess=only pop=none

title

0 1
 C    1.10712900   -1.48465400    0.00000000
 C   -0.00001100   -0.72877000    0.00000000
 C    0.00000000    0.72875800    0.00000000
 C   -1.10712300    1.48466300    0.00000000
 H    2.09998900   -1.03986800    0.00000000
 H    1.05995700   -2.56940600    0.00000000
 H   -0.97811200   -1.21104800    0.00000000
 H    0.97811000    1.21101800    0.00000000
 H   -2.09999700    1.03991100    0.00000000
 H   -1.05991600    2.56941400    3.00000000

norep pcmdoc geomview nodis cav g03defaults noaddsph tsare=0.075
nsfe=10
Vmol=90.14980809698568 rsolv=2.815

 1  2.04  1.0
 2  2.04  1.0
 3  2.04  1.0
 4  2.04  1.0
 5  1.44  1.0
 6  1.44  1.0
 7  1.44  1.0
 8  1.44  1.0
 9  1.44  1.0
 10  1.44  1.0

--link1--
%kjob l301
%chk=structure-3-Gcav-1.0.chk
%nproc=8
%mem=1gb
#p wb97xd def2tzvp
# scrf=(iefpcm,solvent=cyclohexane,read) nosym guess=only pop=none

title

0 1
 C    1.10712900   -1.48465400    0.00000000
 C   -0.00001100   -0.72877000    0.00000000
 C    0.00000000    0.72875800    0.00000000
 C   -1.10712300    1.48466300    0.00000000
 H    2.09998900   -1.03986800    0.00000000
 H    1.05995700   -2.56940600    0.00000000
 H   -0.97811200   -1.21104800    0.00000000
 H    0.97811000    1.21101800    0.00000000
 H   -2.09999700    1.03991100    0.00000000
 H   -1.05991600    2.56941400    3.00000000

norep pcmdoc geomview nodis cav g03defaults noaddsph tsare=0.075
nsfe=10
Vmol=84.6525547035993 rsolv=2.815

 1  2.04  1.0
 2  2.04  1.0
 3  2.04  1.0
 4  2.04  1.0
 5  1.44  1.0
 6  1.44  1.0
 7  1.44  1.0
 8  1.44  1.0
 9  1.44  1.0
 10  1.44  1.0

--link1--
%kjob l301
%chk=structure-3-Gcav-0.975.chk
%nproc=8
%mem=1gb
#p wb97xd def2tzvp
# scrf=(iefpcm,solvent=cyclohexane,read) nosym guess=only pop=none

title

0 1
 C    1.10712900   -1.48465400    0.00000000
 C   -0.00001100   -0.72877000    0.00000000
 C    0.00000000    0.72875800    0.00000000
 C   -1.10712300    1.48466300    0.00000000
 H    2.09998900   -1.03986800    0.00000000
 H    1.05995700   -2.56940600    0.00000000
 H   -0.97811200   -1.21104800    0.00000000
 H    0.97811000    1.21101800    0.00000000
 H   -2.09999700    1.03991100    0.00000000
 H   -1.05991600    2.56941400    3.00000000

norep pcmdoc geomview nodis cav g03defaults noaddsph tsare=0.075
nsfe=10
Vmol=82.39904887681277 rsolv=2.815

 1  2.04  1.0
 2  2.04  1.0
 3  2.04  1.0
 4  2.04  1.0
 5  1.44  1.0
 6  1.44  1.0
 7  1.44  1.0
 8  1.44  1.0
 9  1.44  1.0
 10  1.44  1.0

--link1--
%kjob l301
%chk=structure-3-Gcav-0.95.chk
%nproc=8
%mem=1gb
#p wb97xd def2tzvp
# scrf=(iefpcm,solvent=cyclohexane,read) nosym guess=only pop=none

title

0 1
 C    1.10712900   -1.48465400    0.00000000
 C   -0.00001100   -0.72877000    0.00000000
 C    0.00000000    0.72875800    0.00000000
 C   -1.10712300    1.48466300    0.00000000
 H    2.09998900   -1.03986800    0.00000000
 H    1.05995700   -2.56940600    0.00000000
 H   -0.97811200   -1.21104800    0.00000000
 H    0.97811000    1.21101800    0.00000000
 H   -2.09999700    1.03991100    0.00000000
 H   -1.05991600    2.56941400    3.00000000

norep pcmdoc geomview nodis cav g03defaults noaddsph tsare=0.075
nsfe=10
Vmol=79.49102535163219 rsolv=2.815

 1  2.04  1.0
 2  2.04  1.0
 3  2.04  1.0
 4  2.04  1.0
 5  1.44  1.0
 6  1.44  1.0
 7  1.44  1.0
 8  1.44  1.0
 9  1.44  1.0
 10  1.44  1.0

