%kjob l301
%chk=structure-3-Vc.chk
%nproc=1
%mem=1000mb
#p b3lyp 6-31g*
# scrf=(iefpcm,solvent=cyclohexane,read) nosym guess=only pop=none

title

0 1
 C -2.454531 -0.620920 0.450078
 C -2.429115 0.860192 0.177901
 C -1.411688 1.453495 -0.452012
 C -0.144149 0.761548 -0.892337
 C -0.185628 -0.801613 -0.789740
 C -1.604183 -1.370946 -0.585116
 H -1.446210 2.528854 -0.632087
 H -3.282020 1.454343 0.503764
 H -2.092649 -0.822074 1.469083
 H -3.486923 -0.994204 0.418758
 H 0.057528 1.047828 -1.935726
 H 0.169231 -1.207683 -1.746829
 H -2.132404 -1.318363 -1.546324
 H -1.534534 -2.436262 -0.327132
 C 0.716641 -0.470708 1.551966
 C 0.862900 -1.264979 0.274427
 H 0.549920 -0.955102 2.511169
 H 0.766306 -2.343321 0.443899
 C 2.267636 -0.935217 -0.307517
 H 3.039458 -1.259338 0.398554
 H 2.424242 -1.498287 -1.236154
 C 0.843594 0.852001 1.392785
 H 0.780145 1.572240 2.204115
 C 1.068138 1.281056 -0.039061
 H 1.146978 2.369349 -0.136763
 C 2.359537 0.594607 -0.563515
 H 3.233257 1.023470 -0.061341
 H 2.472773 0.807458 -1.634143

qrep pcmdoc geomview nodis nocav g03defaults tsare=0.075
nsfe=28
nvesolv=36 solvmw=84.1595 rsolv=2.815
eps=2.0165 rhos=0.7781                  

  -2.454531 -0.620920 0.450078  1.7  1.2
  -2.429115 0.860192 0.177901  1.7  1.2
  -1.411688 1.453495 -0.452012  1.2  1.2
  -0.144149 0.761548 -0.892337  1.2  1.2
  -0.185628 -0.801613 -0.789740  1.7  1.2
  -1.604183 -1.370946 -0.585116  1.2  1.2
  -1.446210 2.528854 -0.632087  1.2  1.2
  -3.282020 1.454343 0.503764  1.7  1.2
  -2.092649 -0.822074 1.469083  1.2  1.2
  -3.486923 -0.994204 0.418758  1.7  1.2
  0.057528 1.047828 -1.935726  1.2  1.2
  0.169231 -1.207683 -1.746829  1.7  1.2
  -2.132404 -1.318363 -1.546324  1.2  1.2
  -1.534534 -2.436262 -0.327132  1.2  1.2
  0.716641 -0.470708 1.551966  1.7  1.2
  0.862900 -1.264979 0.274427  1.7  1.2
  0.549920 -0.955102 2.511169  1.7  1.2
  0.766306 -2.343321 0.443899  1.7  1.2
  2.267636 -0.935217 -0.307517  1.7  1.2
  3.039458 -1.259338 0.398554  1.7  1.2
  2.424242 -1.498287 -1.236154  1.2  1.2
  0.843594 0.852001 1.392785  1.2  1.2
  0.780145 1.572240 2.204115  1.2  1.2
  1.068138 1.281056 -0.039061  1.2  1.2
  1.146978 2.369349 -0.136763  1.2  1.2
  2.359537 0.594607 -0.563515  1.2  1.2
  3.233257 1.023470 -0.061341  1.2  1.2
  2.472773 0.807458 -1.634143  1.2  1.2

--link1--
%kjob l301
%chk=structure-3-Vc.chk
%nproc=1
%mem=1000mb
#p b3lyp 6-31g*
# scrf=(iefpcm,solvent=cyclohexane,read) nosym guess=only pop=none

title

0 1
 C -2.454531 -0.620920 0.450078
 C -2.429115 0.860192 0.177901
 C -1.411688 1.453495 -0.452012
 C -0.144149 0.761548 -0.892337
 C -0.185628 -0.801613 -0.789740
 C -1.604183 -1.370946 -0.585116
 H -1.446210 2.528854 -0.632087
 H -3.282020 1.454343 0.503764
 H -2.092649 -0.822074 1.469083
 H -3.486923 -0.994204 0.418758
 H 0.057528 1.047828 -1.935726
 H 0.169231 -1.207683 -1.746829
 H -2.132404 -1.318363 -1.546324
 H -1.534534 -2.436262 -0.327132
 C 0.716641 -0.470708 1.551966
 C 0.862900 -1.264979 0.274427
 H 0.549920 -0.955102 2.511169
 H 0.766306 -2.343321 0.443899
 C 2.267636 -0.935217 -0.307517
 H 3.039458 -1.259338 0.398554
 H 2.424242 -1.498287 -1.236154
 C 0.843594 0.852001 1.392785
 H 0.780145 1.572240 2.204115
 C 1.068138 1.281056 -0.039061
 H 1.146978 2.369349 -0.136763
 C 2.359537 0.594607 -0.563515
 H 3.233257 1.023470 -0.061341
 H 2.472773 0.807458 -1.634143

qrep pcmdoc geomview nodis nocav g03defaults tsare=0.075
nsfe=28
nvesolv=36 solvmw=84.1595 rsolv=2.815
eps=2.0165 rhos=0.7781                  

  -2.454531 -0.620920 0.450078  1.7  1.15
  -2.429115 0.860192 0.177901  1.7  1.15
  -1.411688 1.453495 -0.452012  1.2  1.15
  -0.144149 0.761548 -0.892337  1.2  1.15
  -0.185628 -0.801613 -0.789740  1.7  1.15
  -1.604183 -1.370946 -0.585116  1.2  1.15
  -1.446210 2.528854 -0.632087  1.2  1.15
  -3.282020 1.454343 0.503764  1.7  1.15
  -2.092649 -0.822074 1.469083  1.2  1.15
  -3.486923 -0.994204 0.418758  1.7  1.15
  0.057528 1.047828 -1.935726  1.2  1.15
  0.169231 -1.207683 -1.746829  1.7  1.15
  -2.132404 -1.318363 -1.546324  1.2  1.15
  -1.534534 -2.436262 -0.327132  1.2  1.15
  0.716641 -0.470708 1.551966  1.7  1.15
  0.862900 -1.264979 0.274427  1.7  1.15
  0.549920 -0.955102 2.511169  1.7  1.15
  0.766306 -2.343321 0.443899  1.7  1.15
  2.267636 -0.935217 -0.307517  1.7  1.15
  3.039458 -1.259338 0.398554  1.7  1.15
  2.424242 -1.498287 -1.236154  1.2  1.15
  0.843594 0.852001 1.392785  1.2  1.15
  0.780145 1.572240 2.204115  1.2  1.15
  1.068138 1.281056 -0.039061  1.2  1.15
  1.146978 2.369349 -0.136763  1.2  1.15
  2.359537 0.594607 -0.563515  1.2  1.15
  3.233257 1.023470 -0.061341  1.2  1.15
  2.472773 0.807458 -1.634143  1.2  1.15

--link1--
%kjob l301
%chk=structure-3-Vc.chk
%nproc=1
%mem=1000mb
#p b3lyp 6-31g*
# scrf=(iefpcm,solvent=cyclohexane,read) nosym guess=only pop=none

title

0 1
 C -2.454531 -0.620920 0.450078
 C -2.429115 0.860192 0.177901
 C -1.411688 1.453495 -0.452012
 C -0.144149 0.761548 -0.892337
 C -0.185628 -0.801613 -0.789740
 C -1.604183 -1.370946 -0.585116
 H -1.446210 2.528854 -0.632087
 H -3.282020 1.454343 0.503764
 H -2.092649 -0.822074 1.469083
 H -3.486923 -0.994204 0.418758
 H 0.057528 1.047828 -1.935726
 H 0.169231 -1.207683 -1.746829
 H -2.132404 -1.318363 -1.546324
 H -1.534534 -2.436262 -0.327132
 C 0.716641 -0.470708 1.551966
 C 0.862900 -1.264979 0.274427
 H 0.549920 -0.955102 2.511169
 H 0.766306 -2.343321 0.443899
 C 2.267636 -0.935217 -0.307517
 H 3.039458 -1.259338 0.398554
 H 2.424242 -1.498287 -1.236154
 C 0.843594 0.852001 1.392785
 H 0.780145 1.572240 2.204115
 C 1.068138 1.281056 -0.039061
 H 1.146978 2.369349 -0.136763
 C 2.359537 0.594607 -0.563515
 H 3.233257 1.023470 -0.061341
 H 2.472773 0.807458 -1.634143

qrep pcmdoc geomview nodis nocav g03defaults tsare=0.075
nsfe=28
nvesolv=36 solvmw=84.1595 rsolv=2.815
eps=2.0165 rhos=0.7781                  

  -2.454531 -0.620920 0.450078  1.7  1.1
  -2.429115 0.860192 0.177901  1.7  1.1
  -1.411688 1.453495 -0.452012  1.2  1.1
  -0.144149 0.761548 -0.892337  1.2  1.1
  -0.185628 -0.801613 -0.789740  1.7  1.1
  -1.604183 -1.370946 -0.585116  1.2  1.1
  -1.446210 2.528854 -0.632087  1.2  1.1
  -3.282020 1.454343 0.503764  1.7  1.1
  -2.092649 -0.822074 1.469083  1.2  1.1
  -3.486923 -0.994204 0.418758  1.7  1.1
  0.057528 1.047828 -1.935726  1.2  1.1
  0.169231 -1.207683 -1.746829  1.7  1.1
  -2.132404 -1.318363 -1.546324  1.2  1.1
  -1.534534 -2.436262 -0.327132  1.2  1.1
  0.716641 -0.470708 1.551966  1.7  1.1
  0.862900 -1.264979 0.274427  1.7  1.1
  0.549920 -0.955102 2.511169  1.7  1.1
  0.766306 -2.343321 0.443899  1.7  1.1
  2.267636 -0.935217 -0.307517  1.7  1.1
  3.039458 -1.259338 0.398554  1.7  1.1
  2.424242 -1.498287 -1.236154  1.2  1.1
  0.843594 0.852001 1.392785  1.2  1.1
  0.780145 1.572240 2.204115  1.2  1.1
  1.068138 1.281056 -0.039061  1.2  1.1
  1.146978 2.369349 -0.136763  1.2  1.1
  2.359537 0.594607 -0.563515  1.2  1.1
  3.233257 1.023470 -0.061341  1.2  1.1
  2.472773 0.807458 -1.634143  1.2  1.1

--link1--
%kjob l301
%chk=structure-3-Vc.chk
%nproc=1
%mem=1000mb
#p b3lyp 6-31g*
# scrf=(iefpcm,solvent=cyclohexane,read) nosym guess=only pop=none

title

0 1
 C -2.454531 -0.620920 0.450078
 C -2.429115 0.860192 0.177901
 C -1.411688 1.453495 -0.452012
 C -0.144149 0.761548 -0.892337
 C -0.185628 -0.801613 -0.789740
 C -1.604183 -1.370946 -0.585116
 H -1.446210 2.528854 -0.632087
 H -3.282020 1.454343 0.503764
 H -2.092649 -0.822074 1.469083
 H -3.486923 -0.994204 0.418758
 H 0.057528 1.047828 -1.935726
 H 0.169231 -1.207683 -1.746829
 H -2.132404 -1.318363 -1.546324
 H -1.534534 -2.436262 -0.327132
 C 0.716641 -0.470708 1.551966
 C 0.862900 -1.264979 0.274427
 H 0.549920 -0.955102 2.511169
 H 0.766306 -2.343321 0.443899
 C 2.267636 -0.935217 -0.307517
 H 3.039458 -1.259338 0.398554
 H 2.424242 -1.498287 -1.236154
 C 0.843594 0.852001 1.392785
 H 0.780145 1.572240 2.204115
 C 1.068138 1.281056 -0.039061
 H 1.146978 2.369349 -0.136763
 C 2.359537 0.594607 -0.563515
 H 3.233257 1.023470 -0.061341
 H 2.472773 0.807458 -1.634143

qrep pcmdoc geomview nodis nocav g03defaults tsare=0.075
nsfe=28
nvesolv=36 solvmw=84.1595 rsolv=2.815
eps=2.0165 rhos=0.7781                  

  -2.454531 -0.620920 0.450078  1.7  1.05
  -2.429115 0.860192 0.177901  1.7  1.05
  -1.411688 1.453495 -0.452012  1.2  1.05
  -0.144149 0.761548 -0.892337  1.2  1.05
  -0.185628 -0.801613 -0.789740  1.7  1.05
  -1.604183 -1.370946 -0.585116  1.2  1.05
  -1.446210 2.528854 -0.632087  1.2  1.05
  -3.282020 1.454343 0.503764  1.7  1.05
  -2.092649 -0.822074 1.469083  1.2  1.05
  -3.486923 -0.994204 0.418758  1.7  1.05
  0.057528 1.047828 -1.935726  1.2  1.05
  0.169231 -1.207683 -1.746829  1.7  1.05
  -2.132404 -1.318363 -1.546324  1.2  1.05
  -1.534534 -2.436262 -0.327132  1.2  1.05
  0.716641 -0.470708 1.551966  1.7  1.05
  0.862900 -1.264979 0.274427  1.7  1.05
  0.549920 -0.955102 2.511169  1.7  1.05
  0.766306 -2.343321 0.443899  1.7  1.05
  2.267636 -0.935217 -0.307517  1.7  1.05
  3.039458 -1.259338 0.398554  1.7  1.05
  2.424242 -1.498287 -1.236154  1.2  1.05
  0.843594 0.852001 1.392785  1.2  1.05
  0.780145 1.572240 2.204115  1.2  1.05
  1.068138 1.281056 -0.039061  1.2  1.05
  1.146978 2.369349 -0.136763  1.2  1.05
  2.359537 0.594607 -0.563515  1.2  1.05
  3.233257 1.023470 -0.061341  1.2  1.05
  2.472773 0.807458 -1.634143  1.2  1.05

--link1--
%kjob l301
%chk=structure-3-Vc.chk
%nproc=1
%mem=1000mb
#p b3lyp 6-31g*
# scrf=(iefpcm,solvent=cyclohexane,read) nosym guess=only pop=none

title

0 1
 C -2.454531 -0.620920 0.450078
 C -2.429115 0.860192 0.177901
 C -1.411688 1.453495 -0.452012
 C -0.144149 0.761548 -0.892337
 C -0.185628 -0.801613 -0.789740
 C -1.604183 -1.370946 -0.585116
 H -1.446210 2.528854 -0.632087
 H -3.282020 1.454343 0.503764
 H -2.092649 -0.822074 1.469083
 H -3.486923 -0.994204 0.418758
 H 0.057528 1.047828 -1.935726
 H 0.169231 -1.207683 -1.746829
 H -2.132404 -1.318363 -1.546324
 H -1.534534 -2.436262 -0.327132
 C 0.716641 -0.470708 1.551966
 C 0.862900 -1.264979 0.274427
 H 0.549920 -0.955102 2.511169
 H 0.766306 -2.343321 0.443899
 C 2.267636 -0.935217 -0.307517
 H 3.039458 -1.259338 0.398554
 H 2.424242 -1.498287 -1.236154
 C 0.843594 0.852001 1.392785
 H 0.780145 1.572240 2.204115
 C 1.068138 1.281056 -0.039061
 H 1.146978 2.369349 -0.136763
 C 2.359537 0.594607 -0.563515
 H 3.233257 1.023470 -0.061341
 H 2.472773 0.807458 -1.634143

qrep pcmdoc geomview nodis nocav g03defaults tsare=0.075
nsfe=28
nvesolv=36 solvmw=84.1595 rsolv=2.815
eps=2.0165 rhos=0.7781                  

  -2.454531 -0.620920 0.450078  1.7  1.0
  -2.429115 0.860192 0.177901  1.7  1.0
  -1.411688 1.453495 -0.452012  1.2  1.0
  -0.144149 0.761548 -0.892337  1.2  1.0
  -0.185628 -0.801613 -0.789740  1.7  1.0
  -1.604183 -1.370946 -0.585116  1.2  1.0
  -1.446210 2.528854 -0.632087  1.2  1.0
  -3.282020 1.454343 0.503764  1.7  1.0
  -2.092649 -0.822074 1.469083  1.2  1.0
  -3.486923 -0.994204 0.418758  1.7  1.0
  0.057528 1.047828 -1.935726  1.2  1.0
  0.169231 -1.207683 -1.746829  1.7  1.0
  -2.132404 -1.318363 -1.546324  1.2  1.0
  -1.534534 -2.436262 -0.327132  1.2  1.0
  0.716641 -0.470708 1.551966  1.7  1.0
  0.862900 -1.264979 0.274427  1.7  1.0
  0.549920 -0.955102 2.511169  1.7  1.0
  0.766306 -2.343321 0.443899  1.7  1.0
  2.267636 -0.935217 -0.307517  1.7  1.0
  3.039458 -1.259338 0.398554  1.7  1.0
  2.424242 -1.498287 -1.236154  1.2  1.0
  0.843594 0.852001 1.392785  1.2  1.0
  0.780145 1.572240 2.204115  1.2  1.0
  1.068138 1.281056 -0.039061  1.2  1.0
  1.146978 2.369349 -0.136763  1.2  1.0
  2.359537 0.594607 -0.563515  1.2  1.0
  3.233257 1.023470 -0.061341  1.2  1.0
  2.472773 0.807458 -1.634143  1.2  1.0

--link1--
%kjob l301
%chk=structure-3-Vc.chk
%nproc=1
%mem=1000mb
#p b3lyp 6-31g*
# scrf=(iefpcm,solvent=cyclohexane,read) nosym guess=only pop=none

title

0 1
 C -2.454531 -0.620920 0.450078
 C -2.429115 0.860192 0.177901
 C -1.411688 1.453495 -0.452012
 C -0.144149 0.761548 -0.892337
 C -0.185628 -0.801613 -0.789740
 C -1.604183 -1.370946 -0.585116
 H -1.446210 2.528854 -0.632087
 H -3.282020 1.454343 0.503764
 H -2.092649 -0.822074 1.469083
 H -3.486923 -0.994204 0.418758
 H 0.057528 1.047828 -1.935726
 H 0.169231 -1.207683 -1.746829
 H -2.132404 -1.318363 -1.546324
 H -1.534534 -2.436262 -0.327132
 C 0.716641 -0.470708 1.551966
 C 0.862900 -1.264979 0.274427
 H 0.549920 -0.955102 2.511169
 H 0.766306 -2.343321 0.443899
 C 2.267636 -0.935217 -0.307517
 H 3.039458 -1.259338 0.398554
 H 2.424242 -1.498287 -1.236154
 C 0.843594 0.852001 1.392785
 H 0.780145 1.572240 2.204115
 C 1.068138 1.281056 -0.039061
 H 1.146978 2.369349 -0.136763
 C 2.359537 0.594607 -0.563515
 H 3.233257 1.023470 -0.061341
 H 2.472773 0.807458 -1.634143

qrep pcmdoc geomview nodis nocav g03defaults tsare=0.075
nsfe=28
nvesolv=36 solvmw=84.1595 rsolv=2.815
eps=2.0165 rhos=0.7781                  

  -2.454531 -0.620920 0.450078  1.7  0.975
  -2.429115 0.860192 0.177901  1.7  0.975
  -1.411688 1.453495 -0.452012  1.2  0.975
  -0.144149 0.761548 -0.892337  1.2  0.975
  -0.185628 -0.801613 -0.789740  1.7  0.975
  -1.604183 -1.370946 -0.585116  1.2  0.975
  -1.446210 2.528854 -0.632087  1.2  0.975
  -3.282020 1.454343 0.503764  1.7  0.975
  -2.092649 -0.822074 1.469083  1.2  0.975
  -3.486923 -0.994204 0.418758  1.7  0.975
  0.057528 1.047828 -1.935726  1.2  0.975
  0.169231 -1.207683 -1.746829  1.7  0.975
  -2.132404 -1.318363 -1.546324  1.2  0.975
  -1.534534 -2.436262 -0.327132  1.2  0.975
  0.716641 -0.470708 1.551966  1.7  0.975
  0.862900 -1.264979 0.274427  1.7  0.975
  0.549920 -0.955102 2.511169  1.7  0.975
  0.766306 -2.343321 0.443899  1.7  0.975
  2.267636 -0.935217 -0.307517  1.7  0.975
  3.039458 -1.259338 0.398554  1.7  0.975
  2.424242 -1.498287 -1.236154  1.2  0.975
  0.843594 0.852001 1.392785  1.2  0.975
  0.780145 1.572240 2.204115  1.2  0.975
  1.068138 1.281056 -0.039061  1.2  0.975
  1.146978 2.369349 -0.136763  1.2  0.975
  2.359537 0.594607 -0.563515  1.2  0.975
  3.233257 1.023470 -0.061341  1.2  0.975
  2.472773 0.807458 -1.634143  1.2  0.975

--link1--
%kjob l301
%chk=structure-3-Vc.chk
%nproc=1
%mem=1000mb
#p b3lyp 6-31g*
# scrf=(iefpcm,solvent=cyclohexane,read) nosym guess=only pop=none

title

0 1
 C -2.454531 -0.620920 0.450078
 C -2.429115 0.860192 0.177901
 C -1.411688 1.453495 -0.452012
 C -0.144149 0.761548 -0.892337
 C -0.185628 -0.801613 -0.789740
 C -1.604183 -1.370946 -0.585116
 H -1.446210 2.528854 -0.632087
 H -3.282020 1.454343 0.503764
 H -2.092649 -0.822074 1.469083
 H -3.486923 -0.994204 0.418758
 H 0.057528 1.047828 -1.935726
 H 0.169231 -1.207683 -1.746829
 H -2.132404 -1.318363 -1.546324
 H -1.534534 -2.436262 -0.327132
 C 0.716641 -0.470708 1.551966
 C 0.862900 -1.264979 0.274427
 H 0.549920 -0.955102 2.511169
 H 0.766306 -2.343321 0.443899
 C 2.267636 -0.935217 -0.307517
 H 3.039458 -1.259338 0.398554
 H 2.424242 -1.498287 -1.236154
 C 0.843594 0.852001 1.392785
 H 0.780145 1.572240 2.204115
 C 1.068138 1.281056 -0.039061
 H 1.146978 2.369349 -0.136763
 C 2.359537 0.594607 -0.563515
 H 3.233257 1.023470 -0.061341
 H 2.472773 0.807458 -1.634143

qrep pcmdoc geomview nodis nocav g03defaults tsare=0.075
nsfe=28
nvesolv=36 solvmw=84.1595 rsolv=2.815
eps=2.0165 rhos=0.7781                  

  -2.454531 -0.620920 0.450078  1.7  0.95
  -2.429115 0.860192 0.177901  1.7  0.95
  -1.411688 1.453495 -0.452012  1.2  0.95
  -0.144149 0.761548 -0.892337  1.2  0.95
  -0.185628 -0.801613 -0.789740  1.7  0.95
  -1.604183 -1.370946 -0.585116  1.2  0.95
  -1.446210 2.528854 -0.632087  1.2  0.95
  -3.282020 1.454343 0.503764  1.7  0.95
  -2.092649 -0.822074 1.469083  1.2  0.95
  -3.486923 -0.994204 0.418758  1.7  0.95
  0.057528 1.047828 -1.935726  1.2  0.95
  0.169231 -1.207683 -1.746829  1.7  0.95
  -2.132404 -1.318363 -1.546324  1.2  0.95
  -1.534534 -2.436262 -0.327132  1.2  0.95
  0.716641 -0.470708 1.551966  1.7  0.95
  0.862900 -1.264979 0.274427  1.7  0.95
  0.549920 -0.955102 2.511169  1.7  0.95
  0.766306 -2.343321 0.443899  1.7  0.95
  2.267636 -0.935217 -0.307517  1.7  0.95
  3.039458 -1.259338 0.398554  1.7  0.95
  2.424242 -1.498287 -1.236154  1.2  0.95
  0.843594 0.852001 1.392785  1.2  0.95
  0.780145 1.572240 2.204115  1.2  0.95
  1.068138 1.281056 -0.039061  1.2  0.95
  1.146978 2.369349 -0.136763  1.2  0.95
  2.359537 0.594607 -0.563515  1.2  0.95
  3.233257 1.023470 -0.061341  1.2  0.95
  2.472773 0.807458 -1.634143  1.2  0.95

