%kjob l301
%chk=structure-1-Gcav.chk
%nproc=24
%mem=48gb
#p b3lyp 6-31g*
# scrf=(iefpcm,solvent=cyclohexane,read) nosym guess=only pop=none

title

0 1
 C    -0.941240     0.709078    -1.447500
 C    -1.130144    -0.586439    -1.688764
 H    -0.187383     1.270013    -1.985885
 H    -0.546479    -1.097826    -2.445614
 C    -2.213721    -1.349362    -0.978023
 H    -3.123677    -1.301662    -1.591424
 H    -1.953148    -2.406359    -0.901332
 C    -1.753199     1.406457    -0.450967
 H    -1.718481     2.488604    -0.416537
 C    -2.498772     0.723169     0.416199
 H    -3.072350     1.240660     1.176490
 C    -2.498247    -0.780221     0.412174
 H    -3.447477    -1.166814     0.787115
 H    -1.724665    -1.122064     1.111268
 C     2.576005    -0.058432    -0.624796
 C     2.259201     1.245519     0.052337
 C     1.443331     1.283534     1.104783
 C     0.864455     0.053379     1.642538
 C     1.343111    -1.135379     1.281075
 C     2.518953    -1.235476     0.348814
 H     1.175601     2.227900     1.562761
 H     2.658280     2.161148    -0.368562
 H     1.841411    -0.211714    -1.425701
 H     3.555179    -0.016744    -1.104840
 H     0.043038     0.131938     2.344097
 H     0.931882    -2.046820     1.699547
 H     3.435020    -1.259975     0.954472
 H     2.493558    -2.175989    -0.204125

norep pcmdoc geomview nodis cav g03defaults noaddsph tsare=0.075
nsfe=28
Vmol=108.16026217709805 rsolv=2.815

 1  2.04  1.0
 2  2.04  1.0
 3  1.44  1.0
 4  1.44  1.0
 5  2.04  1.0
 6  1.44  1.0
 7  1.44  1.0
 8  2.04  1.0
 9  1.44  1.0
 10  2.04  1.0
 11  1.44  1.0
 12  2.04  1.0
 13  1.44  1.0
 14  1.44  1.0
 15  2.04  1.0
 16  2.04  1.0
 17  2.04  1.0
 18  2.04  1.0
 19  2.04  1.0
 20  2.04  1.0
 21  1.44  1.0
 22  1.44  1.0
 23  1.44  1.0
 24  1.44  1.0
 25  1.44  1.0
 26  1.44  1.0
 27  1.44  1.0
 28  1.44  1.0

--link1--
%kjob l301
%chk=structure-1-Gcav.chk
%nproc=24
%mem=48gb
#p b3lyp 6-31g*
# scrf=(iefpcm,solvent=cyclohexane,read) nosym guess=only pop=none

title

0 1
 C    -0.941240     0.709078    -1.447500
 C    -1.130144    -0.586439    -1.688764
 H    -0.187383     1.270013    -1.985885
 H    -0.546479    -1.097826    -2.445614
 C    -2.213721    -1.349362    -0.978023
 H    -3.123677    -1.301662    -1.591424
 H    -1.953148    -2.406359    -0.901332
 C    -1.753199     1.406457    -0.450967
 H    -1.718481     2.488604    -0.416537
 C    -2.498772     0.723169     0.416199
 H    -3.072350     1.240660     1.176490
 C    -2.498247    -0.780221     0.412174
 H    -3.447477    -1.166814     0.787115
 H    -1.724665    -1.122064     1.111268
 C     2.576005    -0.058432    -0.624796
 C     2.259201     1.245519     0.052337
 C     1.443331     1.283534     1.104783
 C     0.864455     0.053379     1.642538
 C     1.343111    -1.135379     1.281075
 C     2.518953    -1.235476     0.348814
 H     1.175601     2.227900     1.562761
 H     2.658280     2.161148    -0.368562
 H     1.841411    -0.211714    -1.425701
 H     3.555179    -0.016744    -1.104840
 H     0.043038     0.131938     2.344097
 H     0.931882    -2.046820     1.699547
 H     3.435020    -1.259975     0.954472
 H     2.493558    -2.175989    -0.204125

norep pcmdoc geomview nodis cav g03defaults noaddsph tsare=0.075
nsfe=28
Vmol=101.72108123654503 rsolv=2.815

 1  2.04  1.0
 2  2.04  1.0
 3  1.44  1.0
 4  1.44  1.0
 5  2.04  1.0
 6  1.44  1.0
 7  1.44  1.0
 8  2.04  1.0
 9  1.44  1.0
 10  2.04  1.0
 11  1.44  1.0
 12  2.04  1.0
 13  1.44  1.0
 14  1.44  1.0
 15  2.04  1.0
 16  2.04  1.0
 17  2.04  1.0
 18  2.04  1.0
 19  2.04  1.0
 20  2.04  1.0
 21  1.44  1.0
 22  1.44  1.0
 23  1.44  1.0
 24  1.44  1.0
 25  1.44  1.0
 26  1.44  1.0
 27  1.44  1.0
 28  1.44  1.0

--link1--
%kjob l301
%chk=structure-1-Gcav.chk
%nproc=24
%mem=48gb
#p b3lyp 6-31g*
# scrf=(iefpcm,solvent=cyclohexane,read) nosym guess=only pop=none

title

0 1
 C    -0.941240     0.709078    -1.447500
 C    -1.130144    -0.586439    -1.688764
 H    -0.187383     1.270013    -1.985885
 H    -0.546479    -1.097826    -2.445614
 C    -2.213721    -1.349362    -0.978023
 H    -3.123677    -1.301662    -1.591424
 H    -1.953148    -2.406359    -0.901332
 C    -1.753199     1.406457    -0.450967
 H    -1.718481     2.488604    -0.416537
 C    -2.498772     0.723169     0.416199
 H    -3.072350     1.240660     1.176490
 C    -2.498247    -0.780221     0.412174
 H    -3.447477    -1.166814     0.787115
 H    -1.724665    -1.122064     1.111268
 C     2.576005    -0.058432    -0.624796
 C     2.259201     1.245519     0.052337
 C     1.443331     1.283534     1.104783
 C     0.864455     0.053379     1.642538
 C     1.343111    -1.135379     1.281075
 C     2.518953    -1.235476     0.348814
 H     1.175601     2.227900     1.562761
 H     2.658280     2.161148    -0.368562
 H     1.841411    -0.211714    -1.425701
 H     3.555179    -0.016744    -1.104840
 H     0.043038     0.131938     2.344097
 H     0.931882    -2.046820     1.699547
 H     3.435020    -1.259975     0.954472
 H     2.493558    -2.175989    -0.204125

norep pcmdoc geomview nodis cav g03defaults noaddsph tsare=0.075
nsfe=28
Vmol=95.79173129088203 rsolv=2.815

 1  2.04  1.0
 2  2.04  1.0
 3  1.44  1.0
 4  1.44  1.0
 5  2.04  1.0
 6  1.44  1.0
 7  1.44  1.0
 8  2.04  1.0
 9  1.44  1.0
 10  2.04  1.0
 11  1.44  1.0
 12  2.04  1.0
 13  1.44  1.0
 14  1.44  1.0
 15  2.04  1.0
 16  2.04  1.0
 17  2.04  1.0
 18  2.04  1.0
 19  2.04  1.0
 20  2.04  1.0
 21  1.44  1.0
 22  1.44  1.0
 23  1.44  1.0
 24  1.44  1.0
 25  1.44  1.0
 26  1.44  1.0
 27  1.44  1.0
 28  1.44  1.0

--link1--
%kjob l301
%chk=structure-1-Gcav.chk
%nproc=24
%mem=48gb
#p b3lyp 6-31g*
# scrf=(iefpcm,solvent=cyclohexane,read) nosym guess=only pop=none

title

0 1
 C    -0.941240     0.709078    -1.447500
 C    -1.130144    -0.586439    -1.688764
 H    -0.187383     1.270013    -1.985885
 H    -0.546479    -1.097826    -2.445614
 C    -2.213721    -1.349362    -0.978023
 H    -3.123677    -1.301662    -1.591424
 H    -1.953148    -2.406359    -0.901332
 C    -1.753199     1.406457    -0.450967
 H    -1.718481     2.488604    -0.416537
 C    -2.498772     0.723169     0.416199
 H    -3.072350     1.240660     1.176490
 C    -2.498247    -0.780221     0.412174
 H    -3.447477    -1.166814     0.787115
 H    -1.724665    -1.122064     1.111268
 C     2.576005    -0.058432    -0.624796
 C     2.259201     1.245519     0.052337
 C     1.443331     1.283534     1.104783
 C     0.864455     0.053379     1.642538
 C     1.343111    -1.135379     1.281075
 C     2.518953    -1.235476     0.348814
 H     1.175601     2.227900     1.562761
 H     2.658280     2.161148    -0.368562
 H     1.841411    -0.211714    -1.425701
 H     3.555179    -0.016744    -1.104840
 H     0.043038     0.131938     2.344097
 H     0.931882    -2.046820     1.699547
 H     3.435020    -1.259975     0.954472
 H     2.493558    -2.175989    -0.204125

norep pcmdoc geomview nodis cav g03defaults noaddsph tsare=0.075
nsfe=28
Vmol=90.1033297892669 rsolv=2.815

 1  2.04  1.0
 2  2.04  1.0
 3  1.44  1.0
 4  1.44  1.0
 5  2.04  1.0
 6  1.44  1.0
 7  1.44  1.0
 8  2.04  1.0
 9  1.44  1.0
 10  2.04  1.0
 11  1.44  1.0
 12  2.04  1.0
 13  1.44  1.0
 14  1.44  1.0
 15  2.04  1.0
 16  2.04  1.0
 17  2.04  1.0
 18  2.04  1.0
 19  2.04  1.0
 20  2.04  1.0
 21  1.44  1.0
 22  1.44  1.0
 23  1.44  1.0
 24  1.44  1.0
 25  1.44  1.0
 26  1.44  1.0
 27  1.44  1.0
 28  1.44  1.0

--link1--
%kjob l301
%chk=structure-1-Gcav.chk
%nproc=24
%mem=48gb
#p b3lyp 6-31g*
# scrf=(iefpcm,solvent=cyclohexane,read) nosym guess=only pop=none

title

0 1
 C    -0.941240     0.709078    -1.447500
 C    -1.130144    -0.586439    -1.688764
 H    -0.187383     1.270013    -1.985885
 H    -0.546479    -1.097826    -2.445614
 C    -2.213721    -1.349362    -0.978023
 H    -3.123677    -1.301662    -1.591424
 H    -1.953148    -2.406359    -0.901332
 C    -1.753199     1.406457    -0.450967
 H    -1.718481     2.488604    -0.416537
 C    -2.498772     0.723169     0.416199
 H    -3.072350     1.240660     1.176490
 C    -2.498247    -0.780221     0.412174
 H    -3.447477    -1.166814     0.787115
 H    -1.724665    -1.122064     1.111268
 C     2.576005    -0.058432    -0.624796
 C     2.259201     1.245519     0.052337
 C     1.443331     1.283534     1.104783
 C     0.864455     0.053379     1.642538
 C     1.343111    -1.135379     1.281075
 C     2.518953    -1.235476     0.348814
 H     1.175601     2.227900     1.562761
 H     2.658280     2.161148    -0.368562
 H     1.841411    -0.211714    -1.425701
 H     3.555179    -0.016744    -1.104840
 H     0.043038     0.131938     2.344097
 H     0.931882    -2.046820     1.699547
 H     3.435020    -1.259975     0.954472
 H     2.493558    -2.175989    -0.204125

norep pcmdoc geomview nodis cav g03defaults noaddsph tsare=0.075
nsfe=28
Vmol=84.59056472034254 rsolv=2.815

 1  2.04  1.0
 2  2.04  1.0
 3  1.44  1.0
 4  1.44  1.0
 5  2.04  1.0
 6  1.44  1.0
 7  1.44  1.0
 8  2.04  1.0
 9  1.44  1.0
 10  2.04  1.0
 11  1.44  1.0
 12  2.04  1.0
 13  1.44  1.0
 14  1.44  1.0
 15  2.04  1.0
 16  2.04  1.0
 17  2.04  1.0
 18  2.04  1.0
 19  2.04  1.0
 20  2.04  1.0
 21  1.44  1.0
 22  1.44  1.0
 23  1.44  1.0
 24  1.44  1.0
 25  1.44  1.0
 26  1.44  1.0
 27  1.44  1.0
 28  1.44  1.0

--link1--
%kjob l301
%chk=structure-1-Gcav.chk
%nproc=24
%mem=48gb
#p b3lyp 6-31g*
# scrf=(iefpcm,solvent=cyclohexane,read) nosym guess=only pop=none

title

0 1
 C    -0.941240     0.709078    -1.447500
 C    -1.130144    -0.586439    -1.688764
 H    -0.187383     1.270013    -1.985885
 H    -0.546479    -1.097826    -2.445614
 C    -2.213721    -1.349362    -0.978023
 H    -3.123677    -1.301662    -1.591424
 H    -1.953148    -2.406359    -0.901332
 C    -1.753199     1.406457    -0.450967
 H    -1.718481     2.488604    -0.416537
 C    -2.498772     0.723169     0.416199
 H    -3.072350     1.240660     1.176490
 C    -2.498247    -0.780221     0.412174
 H    -3.447477    -1.166814     0.787115
 H    -1.724665    -1.122064     1.111268
 C     2.576005    -0.058432    -0.624796
 C     2.259201     1.245519     0.052337
 C     1.443331     1.283534     1.104783
 C     0.864455     0.053379     1.642538
 C     1.343111    -1.135379     1.281075
 C     2.518953    -1.235476     0.348814
 H     1.175601     2.227900     1.562761
 H     2.658280     2.161148    -0.368562
 H     1.841411    -0.211714    -1.425701
 H     3.555179    -0.016744    -1.104840
 H     0.043038     0.131938     2.344097
 H     0.931882    -2.046820     1.699547
 H     3.435020    -1.259975     0.954472
 H     2.493558    -2.175989    -0.204125

norep pcmdoc geomview nodis cav g03defaults noaddsph tsare=0.075
nsfe=28
Vmol=81.85097737242381 rsolv=2.815

 1  2.04  1.0
 2  2.04  1.0
 3  1.44  1.0
 4  1.44  1.0
 5  2.04  1.0
 6  1.44  1.0
 7  1.44  1.0
 8  2.04  1.0
 9  1.44  1.0
 10  2.04  1.0
 11  1.44  1.0
 12  2.04  1.0
 13  1.44  1.0
 14  1.44  1.0
 15  2.04  1.0
 16  2.04  1.0
 17  2.04  1.0
 18  2.04  1.0
 19  2.04  1.0
 20  2.04  1.0
 21  1.44  1.0
 22  1.44  1.0
 23  1.44  1.0
 24  1.44  1.0
 25  1.44  1.0
 26  1.44  1.0
 27  1.44  1.0
 28  1.44  1.0

--link1--
%kjob l301
%chk=structure-1-Gcav.chk
%nproc=24
%mem=48gb
#p b3lyp 6-31g*
# scrf=(iefpcm,solvent=cyclohexane,read) nosym guess=only pop=none

title

0 1
 C    -0.941240     0.709078    -1.447500
 C    -1.130144    -0.586439    -1.688764
 H    -0.187383     1.270013    -1.985885
 H    -0.546479    -1.097826    -2.445614
 C    -2.213721    -1.349362    -0.978023
 H    -3.123677    -1.301662    -1.591424
 H    -1.953148    -2.406359    -0.901332
 C    -1.753199     1.406457    -0.450967
 H    -1.718481     2.488604    -0.416537
 C    -2.498772     0.723169     0.416199
 H    -3.072350     1.240660     1.176490
 C    -2.498247    -0.780221     0.412174
 H    -3.447477    -1.166814     0.787115
 H    -1.724665    -1.122064     1.111268
 C     2.576005    -0.058432    -0.624796
 C     2.259201     1.245519     0.052337
 C     1.443331     1.283534     1.104783
 C     0.864455     0.053379     1.642538
 C     1.343111    -1.135379     1.281075
 C     2.518953    -1.235476     0.348814
 H     1.175601     2.227900     1.562761
 H     2.658280     2.161148    -0.368562
 H     1.841411    -0.211714    -1.425701
 H     3.555179    -0.016744    -1.104840
 H     0.043038     0.131938     2.344097
 H     0.931882    -2.046820     1.699547
 H     3.435020    -1.259975     0.954472
 H     2.493558    -2.175989    -0.204125

norep pcmdoc geomview nodis cav g03defaults noaddsph tsare=0.075
nsfe=28
Vmol=79.24564338197861 rsolv=2.815

 1  2.04  1.0
 2  2.04  1.0
 3  1.44  1.0
 4  1.44  1.0
 5  2.04  1.0
 6  1.44  1.0
 7  1.44  1.0
 8  2.04  1.0
 9  1.44  1.0
 10  2.04  1.0
 11  1.44  1.0
 12  2.04  1.0
 13  1.44  1.0
 14  1.44  1.0
 15  2.04  1.0
 16  2.04  1.0
 17  2.04  1.0
 18  2.04  1.0
 19  2.04  1.0
 20  2.04  1.0
 21  1.44  1.0
 22  1.44  1.0
 23  1.44  1.0
 24  1.44  1.0
 25  1.44  1.0
 26  1.44  1.0
 27  1.44  1.0
 28  1.44  1.0

