%nproc=6
#p b3lyp/6-31g(d) 

Cycloexadiene, E(B3LYP/6-31G*)

0 1
 C                  0.13841300   -1.43021100   -0.00014400
 C                 -1.22553800   -0.78008000    0.00040700
 C                 -1.22554100    0.78007700   -0.00040500
 C                  0.13841000    1.43021200    0.00013500
 C                  1.28267300    0.73359900    0.00019200
 C                  1.28267500   -0.73359600   -0.00018600
 H                  0.15722500   -2.51872300   -0.00033200
 H                 -1.78585100   -1.15298200   -0.86886100
 H                 -1.78469700    1.15213700   -0.87079500
 H                  0.15721900    2.51872400    0.00030200
 H                  2.24003500    1.24959800    0.00046000
 H                  2.24003700   -1.24959400   -0.00045400
 H                 -1.78584000    1.15297200    0.86887600
 H                 -1.78468100   -1.15213600    0.87080800         


