%chk=endo-2TS_xp-12.chk
%nproc=6
#p ub3lyp/6-31g(d)
# scrf=(iefpcm,solvent=Cyclohexane,read) nosym 

endo-2TS 
xp-pcm for eta=3

0 1
 C 2.468892 0.284095 -0.708957 
 C 1.667254 1.330389 0.031252 
 C 1.087601 1.075991 1.256922 
 C 0.689250 -0.234741 1.575517 
 C 0.886557 -1.229380 0.609039 
 C 2.185072 -1.148363 -0.185946 
 H 0.754870 1.903944 1.878564 
 H 1.804474 2.361213 -0.290944 
 H 2.289282 0.358101 -1.789365 
 H 3.538694 0.506111 -0.581025 
 H 0.057564 -0.414132 2.441200 
 H 0.559304 -2.241378 0.845590 
 H 2.995597 -1.451049 0.490252 
 H 2.187529 -1.871427 -1.009641 
 C -0.429793 0.553269 -1.228382 
 C -0.468367 -0.818307 -0.924402 
 H 0.178899 0.920914 -2.045953 
 H 0.039438 -1.478372 -1.626777 
 C -1.793403 -1.381477 -0.412965 
 H -2.433705 -1.525729 -1.296815 
 H -1.657728 -2.376149 0.027843 
 C -1.419929 1.435138 -0.644601 
 H -1.363311 2.495516 -0.884397 
 C -2.359563 1.000047 0.221263 
 H -3.040678 1.712474 0.683525 
 C -2.532766 -0.458144 0.574312 
 H -3.601447 -0.715834 0.575953 
 H -2.193607 -0.635306 1.603677        

qrep pcmdoc geomview  nodis nocav g03defaults tsare=0.075 
nsfe=28
NVESolv=36  SolvMW=84.1595   Rsolv=2.815 
eps=2.0165 RhoS=0.7781

    2.468892     0.284095    -0.708957     1.700000     1.200000
    1.667254     1.330389     0.031252     1.700000     1.200000
    1.087601     1.075991     1.256922     1.700000     1.200000
    0.689250    -0.234741     1.575517     1.700000     1.200000
    0.886557    -1.229380     0.609039     1.700000     1.200000
    2.185072    -1.148363    -0.185946     1.700000     1.200000
    0.754870     1.903944     1.878564     1.200000     1.200000
    1.804474     2.361213    -0.290944     1.200000     1.200000
    2.289282     0.358101    -1.789365     1.200000     1.200000
    3.538694     0.506111    -0.581025     1.200000     1.200000
    0.057564    -0.414132     2.441200     1.200000     1.200000
    0.559304    -2.241378     0.845590     1.200000     1.200000
    2.995597    -1.451049     0.490252     1.200000     1.200000
    2.187529    -1.871427    -1.009641     1.200000     1.200000
   -0.429793     0.553269    -1.228382     1.700000     1.200000
   -0.468367    -0.818307    -0.924402     1.700000     1.200000
    0.178899     0.920914    -2.045953     1.200000     1.200000
    0.039438    -1.478372    -1.626777     1.200000     1.200000
   -1.793403    -1.381477    -0.412965     1.700000     1.200000
   -2.433705    -1.525729    -1.296815     1.200000     1.200000
   -1.657728    -2.376149     0.027843     1.200000     1.200000
   -1.419929     1.435138    -0.644601     1.700000     1.200000
   -1.363311     2.495516    -0.884397     1.200000     1.200000
   -2.359563     1.000047     0.221263     1.700000     1.200000
   -3.040678     1.712474     0.683525     1.200000     1.200000
   -2.532766    -0.458144     0.574312     1.700000     1.200000
   -3.601447    -0.715834     0.575953     1.200000     1.200000
   -2.193607    -0.635306     1.603677     1.200000     1.200000

--link1--

%chk=endo-2TS_xp-115.chk
%nproc=6
#p ub3lyp/6-31g(d)
# scrf=(iefpcm,solvent=Cyclohexane,read) nosym 

endo-2TS 
xp-pcm for eta=3

0 1
 C 2.468892 0.284095 -0.708957 
 C 1.667254 1.330389 0.031252 
 C 1.087601 1.075991 1.256922 
 C 0.689250 -0.234741 1.575517 
 C 0.886557 -1.229380 0.609039 
 C 2.185072 -1.148363 -0.185946 
 H 0.754870 1.903944 1.878564 
 H 1.804474 2.361213 -0.290944 
 H 2.289282 0.358101 -1.789365 
 H 3.538694 0.506111 -0.581025 
 H 0.057564 -0.414132 2.441200 
 H 0.559304 -2.241378 0.845590 
 H 2.995597 -1.451049 0.490252 
 H 2.187529 -1.871427 -1.009641 
 C -0.429793 0.553269 -1.228382 
 C -0.468367 -0.818307 -0.924402 
 H 0.178899 0.920914 -2.045953 
 H 0.039438 -1.478372 -1.626777 
 C -1.793403 -1.381477 -0.412965 
 H -2.433705 -1.525729 -1.296815 
 H -1.657728 -2.376149 0.027843 
 C -1.419929 1.435138 -0.644601 
 H -1.363311 2.495516 -0.884397 
 C -2.359563 1.000047 0.221263 
 H -3.040678 1.712474 0.683525 
 C -2.532766 -0.458144 0.574312 
 H -3.601447 -0.715834 0.575953 
 H -2.193607 -0.635306 1.603677        

qrep pcmdoc geomview  nodis nocav g03defaults tsare=0.075 
nsfe=28
NVESolv=36  SolvMW=84.1595   Rsolv=2.815 
eps=2.08767670941439 RhoS=0.890882252660888

    2.468892     0.284095    -0.708957     1.700000     1.150000
    1.667254     1.330389     0.031252     1.700000     1.150000
    1.087601     1.075991     1.256922     1.700000     1.150000
    0.689250    -0.234741     1.575517     1.700000     1.150000
    0.886557    -1.229380     0.609039     1.700000     1.150000
    2.185072    -1.148363    -0.185946     1.700000     1.150000
    0.754870     1.903944     1.878564     1.200000     1.150000
    1.804474     2.361213    -0.290944     1.200000     1.150000
    2.289282     0.358101    -1.789365     1.200000     1.150000
    3.538694     0.506111    -0.581025     1.200000     1.150000
    0.057564    -0.414132     2.441200     1.200000     1.150000
    0.559304    -2.241378     0.845590     1.200000     1.150000
    2.995597    -1.451049     0.490252     1.200000     1.150000
    2.187529    -1.871427    -1.009641     1.200000     1.150000
   -0.429793     0.553269    -1.228382     1.700000     1.150000
   -0.468367    -0.818307    -0.924402     1.700000     1.150000
    0.178899     0.920914    -2.045953     1.200000     1.150000
    0.039438    -1.478372    -1.626777     1.200000     1.150000
   -1.793403    -1.381477    -0.412965     1.700000     1.150000
   -2.433705    -1.525729    -1.296815     1.200000     1.150000
   -1.657728    -2.376149     0.027843     1.200000     1.150000
   -1.419929     1.435138    -0.644601     1.700000     1.150000
   -1.363311     2.495516    -0.884397     1.200000     1.150000
   -2.359563     1.000047     0.221263     1.700000     1.150000
   -3.040678     1.712474     0.683525     1.200000     1.150000
   -2.532766    -0.458144     0.574312     1.700000     1.150000
   -3.601447    -0.715834     0.575953     1.200000     1.150000
   -2.193607    -0.635306     1.603677     1.200000     1.150000

--link1--

%chk=endo-2TS_xp-110.chk
%nproc=6
#p ub3lyp/6-31g(d)
# scrf=(iefpcm,solvent=Cyclohexane,read) nosym 

endo-2TS 
xp-pcm for eta=3

0 1
 C 2.468892 0.284095 -0.708957 
 C 1.667254 1.330389 0.031252 
 C 1.087601 1.075991 1.256922 
 C 0.689250 -0.234741 1.575517 
 C 0.886557 -1.229380 0.609039 
 C 2.185072 -1.148363 -0.185946 
 H 0.754870 1.903944 1.878564 
 H 1.804474 2.361213 -0.290944 
 H 2.289282 0.358101 -1.789365 
 H 3.538694 0.506111 -0.581025 
 H 0.057564 -0.414132 2.441200 
 H 0.559304 -2.241378 0.845590 
 H 2.995597 -1.451049 0.490252 
 H 2.187529 -1.871427 -1.009641 
 C -0.429793 0.553269 -1.228382 
 C -0.468367 -0.818307 -0.924402 
 H 0.178899 0.920914 -2.045953 
 H 0.039438 -1.478372 -1.626777 
 C -1.793403 -1.381477 -0.412965 
 H -2.433705 -1.525729 -1.296815 
 H -1.657728 -2.376149 0.027843 
 C -1.419929 1.435138 -0.644601 
 H -1.363311 2.495516 -0.884397 
 C -2.359563 1.000047 0.221263 
 H -3.040678 1.712474 0.683525 
 C -2.532766 -0.458144 0.574312 
 H -3.601447 -0.715834 0.575953 
 H -2.193607 -0.635306 1.603677        

qrep pcmdoc geomview  nodis nocav g03defaults tsare=0.075 
nsfe=28
NVESolv=36  SolvMW=84.1595   Rsolv=2.815 
eps=2.16165184581093 RhoS=1.01618463281345

    2.468892     0.284095    -0.708957     1.700000     1.100000
    1.667254     1.330389     0.031252     1.700000     1.100000
    1.087601     1.075991     1.256922     1.700000     1.100000
    0.689250    -0.234741     1.575517     1.700000     1.100000
    0.886557    -1.229380     0.609039     1.700000     1.100000
    2.185072    -1.148363    -0.185946     1.700000     1.100000
    0.754870     1.903944     1.878564     1.200000     1.100000
    1.804474     2.361213    -0.290944     1.200000     1.100000
    2.289282     0.358101    -1.789365     1.200000     1.100000
    3.538694     0.506111    -0.581025     1.200000     1.100000
    0.057564    -0.414132     2.441200     1.200000     1.100000
    0.559304    -2.241378     0.845590     1.200000     1.100000
    2.995597    -1.451049     0.490252     1.200000     1.100000
    2.187529    -1.871427    -1.009641     1.200000     1.100000
   -0.429793     0.553269    -1.228382     1.700000     1.100000
   -0.468367    -0.818307    -0.924402     1.700000     1.100000
    0.178899     0.920914    -2.045953     1.200000     1.100000
    0.039438    -1.478372    -1.626777     1.200000     1.100000
   -1.793403    -1.381477    -0.412965     1.700000     1.100000
   -2.433705    -1.525729    -1.296815     1.200000     1.100000
   -1.657728    -2.376149     0.027843     1.200000     1.100000
   -1.419929     1.435138    -0.644601     1.700000     1.100000
   -1.363311     2.495516    -0.884397     1.200000     1.100000
   -2.359563     1.000047     0.221263     1.700000     1.100000
   -3.040678     1.712474     0.683525     1.200000     1.100000
   -2.532766    -0.458144     0.574312     1.700000     1.100000
   -3.601447    -0.715834     0.575953     1.200000     1.100000
   -2.193607    -0.635306     1.603677     1.200000     1.100000

--link1--

%chk=endo-2TS_xp-105.chk
%nproc=6
#p ub3lyp/6-31g(d)
# scrf=(iefpcm,solvent=Cyclohexane,read) nosym 

endo-2TS 
xp-pcm for eta=3

0 1
 C 2.468892 0.284095 -0.708957 
 C 1.667254 1.330389 0.031252 
 C 1.087601 1.075991 1.256922 
 C 0.689250 -0.234741 1.575517 
 C 0.886557 -1.229380 0.609039 
 C 2.185072 -1.148363 -0.185946 
 H 0.754870 1.903944 1.878564 
 H 1.804474 2.361213 -0.290944 
 H 2.289282 0.358101 -1.789365 
 H 3.538694 0.506111 -0.581025 
 H 0.057564 -0.414132 2.441200 
 H 0.559304 -2.241378 0.845590 
 H 2.995597 -1.451049 0.490252 
 H 2.187529 -1.871427 -1.009641 
 C -0.429793 0.553269 -1.228382 
 C -0.468367 -0.818307 -0.924402 
 H 0.178899 0.920914 -2.045953 
 H 0.039438 -1.478372 -1.626777 
 C -1.793403 -1.381477 -0.412965 
 H -2.433705 -1.525729 -1.296815 
 H -1.657728 -2.376149 0.027843 
 C -1.419929 1.435138 -0.644601 
 H -1.363311 2.495516 -0.884397 
 C -2.359563 1.000047 0.221263 
 H -3.040678 1.712474 0.683525 
 C -2.532766 -0.458144 0.574312 
 H -3.601447 -0.715834 0.575953 
 H -2.193607 -0.635306 1.603677        

qrep pcmdoc geomview  nodis nocav g03defaults tsare=0.075 
nsfe=28
NVESolv=36  SolvMW=84.1595   Rsolv=2.815 
eps=2.24140019241358 RhoS=1.16049765199193

    2.468892     0.284095    -0.708957     1.700000     1.050000
    1.667254     1.330389     0.031252     1.700000     1.050000
    1.087601     1.075991     1.256922     1.700000     1.050000
    0.689250    -0.234741     1.575517     1.700000     1.050000
    0.886557    -1.229380     0.609039     1.700000     1.050000
    2.185072    -1.148363    -0.185946     1.700000     1.050000
    0.754870     1.903944     1.878564     1.200000     1.050000
    1.804474     2.361213    -0.290944     1.200000     1.050000
    2.289282     0.358101    -1.789365     1.200000     1.050000
    3.538694     0.506111    -0.581025     1.200000     1.050000
    0.057564    -0.414132     2.441200     1.200000     1.050000
    0.559304    -2.241378     0.845590     1.200000     1.050000
    2.995597    -1.451049     0.490252     1.200000     1.050000
    2.187529    -1.871427    -1.009641     1.200000     1.050000
   -0.429793     0.553269    -1.228382     1.700000     1.050000
   -0.468367    -0.818307    -0.924402     1.700000     1.050000
    0.178899     0.920914    -2.045953     1.200000     1.050000
    0.039438    -1.478372    -1.626777     1.200000     1.050000
   -1.793403    -1.381477    -0.412965     1.700000     1.050000
   -2.433705    -1.525729    -1.296815     1.200000     1.050000
   -1.657728    -2.376149     0.027843     1.200000     1.050000
   -1.419929     1.435138    -0.644601     1.700000     1.050000
   -1.363311     2.495516    -0.884397     1.200000     1.050000
   -2.359563     1.000047     0.221263     1.700000     1.050000
   -3.040678     1.712474     0.683525     1.200000     1.050000
   -2.532766    -0.458144     0.574312     1.700000     1.050000
   -3.601447    -0.715834     0.575953     1.200000     1.050000
   -2.193607    -0.635306     1.603677     1.200000     1.050000

--link1--

%chk=endo-2TS_xp-100.chk
%nproc=6
#p ub3lyp/6-31g(d)
# scrf=(iefpcm,solvent=Cyclohexane,read) nosym 

endo-2TS 
xp-pcm for eta=3

0 1
 C 2.468892 0.284095 -0.708957 
 C 1.667254 1.330389 0.031252 
 C 1.087601 1.075991 1.256922 
 C 0.689250 -0.234741 1.575517 
 C 0.886557 -1.229380 0.609039 
 C 2.185072 -1.148363 -0.185946 
 H 0.754870 1.903944 1.878564 
 H 1.804474 2.361213 -0.290944 
 H 2.289282 0.358101 -1.789365 
 H 3.538694 0.506111 -0.581025 
 H 0.057564 -0.414132 2.441200 
 H 0.559304 -2.241378 0.845590 
 H 2.995597 -1.451049 0.490252 
 H 2.187529 -1.871427 -1.009641 
 C -0.429793 0.553269 -1.228382 
 C -0.468367 -0.818307 -0.924402 
 H 0.178899 0.920914 -2.045953 
 H 0.039438 -1.478372 -1.626777 
 C -1.793403 -1.381477 -0.412965 
 H -2.433705 -1.525729 -1.296815 
 H -1.657728 -2.376149 0.027843 
 C -1.419929 1.435138 -0.644601 
 H -1.363311 2.495516 -0.884397 
 C -2.359563 1.000047 0.221263 
 H -3.040678 1.712474 0.683525 
 C -2.532766 -0.458144 0.574312 
 H -3.601447 -0.715834 0.575953 
 H -2.193607 -0.635306 1.603677        

qrep pcmdoc geomview  nodis nocav g03defaults tsare=0.075 
nsfe=28
NVESolv=36  SolvMW=84.1595   Rsolv=2.815 
eps=2.32955882151419 RhoS=1.33117686460843

    2.468892     0.284095    -0.708957     1.700000     1.000000
    1.667254     1.330389     0.031252     1.700000     1.000000
    1.087601     1.075991     1.256922     1.700000     1.000000
    0.689250    -0.234741     1.575517     1.700000     1.000000
    0.886557    -1.229380     0.609039     1.700000     1.000000
    2.185072    -1.148363    -0.185946     1.700000     1.000000
    0.754870     1.903944     1.878564     1.200000     1.000000
    1.804474     2.361213    -0.290944     1.200000     1.000000
    2.289282     0.358101    -1.789365     1.200000     1.000000
    3.538694     0.506111    -0.581025     1.200000     1.000000
    0.057564    -0.414132     2.441200     1.200000     1.000000
    0.559304    -2.241378     0.845590     1.200000     1.000000
    2.995597    -1.451049     0.490252     1.200000     1.000000
    2.187529    -1.871427    -1.009641     1.200000     1.000000
   -0.429793     0.553269    -1.228382     1.700000     1.000000
   -0.468367    -0.818307    -0.924402     1.700000     1.000000
    0.178899     0.920914    -2.045953     1.200000     1.000000
    0.039438    -1.478372    -1.626777     1.200000     1.000000
   -1.793403    -1.381477    -0.412965     1.700000     1.000000
   -2.433705    -1.525729    -1.296815     1.200000     1.000000
   -1.657728    -2.376149     0.027843     1.200000     1.000000
   -1.419929     1.435138    -0.644601     1.700000     1.000000
   -1.363311     2.495516    -0.884397     1.200000     1.000000
   -2.359563     1.000047     0.221263     1.700000     1.000000
   -3.040678     1.712474     0.683525     1.200000     1.000000
   -2.532766    -0.458144     0.574312     1.700000     1.000000
   -3.601447    -0.715834     0.575953     1.200000     1.000000
   -2.193607    -0.635306     1.603677     1.200000     1.000000

--link1--

%chk=endo-2TS_xp-0975.chk
%nproc=6
#p ub3lyp/6-31g(d)
# scrf=(iefpcm,solvent=Cyclohexane,read) nosym 

endo-2TS 
xp-pcm for eta=3

0 1
 C 2.468892 0.284095 -0.708957 
 C 1.667254 1.330389 0.031252 
 C 1.087601 1.075991 1.256922 
 C 0.689250 -0.234741 1.575517 
 C 0.886557 -1.229380 0.609039 
 C 2.185072 -1.148363 -0.185946 
 H 0.754870 1.903944 1.878564 
 H 1.804474 2.361213 -0.290944 
 H 2.289282 0.358101 -1.789365 
 H 3.538694 0.506111 -0.581025 
 H 0.057564 -0.414132 2.441200 
 H 0.559304 -2.241378 0.845590 
 H 2.995597 -1.451049 0.490252 
 H 2.187529 -1.871427 -1.009641 
 C -0.429793 0.553269 -1.228382 
 C -0.468367 -0.818307 -0.924402 
 H 0.178899 0.920914 -2.045953 
 H 0.039438 -1.478372 -1.626777 
 C -1.793403 -1.381477 -0.412965 
 H -2.433705 -1.525729 -1.296815 
 H -1.657728 -2.376149 0.027843 
 C -1.419929 1.435138 -0.644601 
 H -1.363311 2.495516 -0.884397 
 C -2.359563 1.000047 0.221263 
 H -3.040678 1.712474 0.683525 
 C -2.532766 -0.458144 0.574312 
 H -3.601447 -0.715834 0.575953 
 H -2.193607 -0.635306 1.603677        

qrep pcmdoc geomview  nodis nocav g03defaults tsare=0.075 
nsfe=28
NVESolv=36  SolvMW=84.1595   Rsolv=2.815 
eps=2.37966645410351 RhoS=1.43340481472775

    2.468892     0.284095    -0.708957     1.700000     0.975000
    1.667254     1.330389     0.031252     1.700000     0.975000
    1.087601     1.075991     1.256922     1.700000     0.975000
    0.689250    -0.234741     1.575517     1.700000     0.975000
    0.886557    -1.229380     0.609039     1.700000     0.975000
    2.185072    -1.148363    -0.185946     1.700000     0.975000
    0.754870     1.903944     1.878564     1.200000     0.975000
    1.804474     2.361213    -0.290944     1.200000     0.975000
    2.289282     0.358101    -1.789365     1.200000     0.975000
    3.538694     0.506111    -0.581025     1.200000     0.975000
    0.057564    -0.414132     2.441200     1.200000     0.975000
    0.559304    -2.241378     0.845590     1.200000     0.975000
    2.995597    -1.451049     0.490252     1.200000     0.975000
    2.187529    -1.871427    -1.009641     1.200000     0.975000
   -0.429793     0.553269    -1.228382     1.700000     0.975000
   -0.468367    -0.818307    -0.924402     1.700000     0.975000
    0.178899     0.920914    -2.045953     1.200000     0.975000
    0.039438    -1.478372    -1.626777     1.200000     0.975000
   -1.793403    -1.381477    -0.412965     1.700000     0.975000
   -2.433705    -1.525729    -1.296815     1.200000     0.975000
   -1.657728    -2.376149     0.027843     1.200000     0.975000
   -1.419929     1.435138    -0.644601     1.700000     0.975000
   -1.363311     2.495516    -0.884397     1.200000     0.975000
   -2.359563     1.000047     0.221263     1.700000     0.975000
   -3.040678     1.712474     0.683525     1.200000     0.975000
   -2.532766    -0.458144     0.574312     1.700000     0.975000
   -3.601447    -0.715834     0.575953     1.200000     0.975000
   -2.193607    -0.635306     1.603677     1.200000     0.975000

--link1--

%chk=endo-2TS_xp-095.chk
%nproc=6
#p ub3lyp/6-31g(d)
# scrf=(iefpcm,solvent=Cyclohexane,read) nosym 

endo-2TS 
xp-pcm for eta=3

0 1
 C 2.468892 0.284095 -0.708957 
 C 1.667254 1.330389 0.031252 
 C 1.087601 1.075991 1.256922 
 C 0.689250 -0.234741 1.575517 
 C 0.886557 -1.229380 0.609039 
 C 2.185072 -1.148363 -0.185946 
 H 0.754870 1.903944 1.878564 
 H 1.804474 2.361213 -0.290944 
 H 2.289282 0.358101 -1.789365 
 H 3.538694 0.506111 -0.581025 
 H 0.057564 -0.414132 2.441200 
 H 0.559304 -2.241378 0.845590 
 H 2.995597 -1.451049 0.490252 
 H 2.187529 -1.871427 -1.009641 
 C -0.429793 0.553269 -1.228382 
 C -0.468367 -0.818307 -0.924402 
 H 0.178899 0.920914 -2.045953 
 H 0.039438 -1.478372 -1.626777 
 C -1.793403 -1.381477 -0.412965 
 H -2.433705 -1.525729 -1.296815 
 H -1.657728 -2.376149 0.027843 
 C -1.419929 1.435138 -0.644601 
 H -1.363311 2.495516 -0.884397 
 C -2.359563 1.000047 0.221263 
 H -3.040678 1.712474 0.683525 
 C -2.532766 -0.458144 0.574312 
 H -3.601447 -0.715834 0.575953 
 H -2.193607 -0.635306 1.603677        

qrep pcmdoc geomview  nodis nocav g03defaults tsare=0.075 
nsfe=28
NVESolv=36  SolvMW=84.1595   Rsolv=2.815 
eps=2.43089215137238 RhoS=1.5418227603105

    2.468892     0.284095    -0.708957     1.700000     0.950000
    1.667254     1.330389     0.031252     1.700000     0.950000
    1.087601     1.075991     1.256922     1.700000     0.950000
    0.689250    -0.234741     1.575517     1.700000     0.950000
    0.886557    -1.229380     0.609039     1.700000     0.950000
    2.185072    -1.148363    -0.185946     1.700000     0.950000
    0.754870     1.903944     1.878564     1.200000     0.950000
    1.804474     2.361213    -0.290944     1.200000     0.950000
    2.289282     0.358101    -1.789365     1.200000     0.950000
    3.538694     0.506111    -0.581025     1.200000     0.950000
    0.057564    -0.414132     2.441200     1.200000     0.950000
    0.559304    -2.241378     0.845590     1.200000     0.950000
    2.995597    -1.451049     0.490252     1.200000     0.950000
    2.187529    -1.871427    -1.009641     1.200000     0.950000
   -0.429793     0.553269    -1.228382     1.700000     0.950000
   -0.468367    -0.818307    -0.924402     1.700000     0.950000
    0.178899     0.920914    -2.045953     1.200000     0.950000
    0.039438    -1.478372    -1.626777     1.200000     0.950000
   -1.793403    -1.381477    -0.412965     1.700000     0.950000
   -2.433705    -1.525729    -1.296815     1.200000     0.950000
   -1.657728    -2.376149     0.027843     1.200000     0.950000
   -1.419929     1.435138    -0.644601     1.700000     0.950000
   -1.363311     2.495516    -0.884397     1.200000     0.950000
   -2.359563     1.000047     0.221263     1.700000     0.950000
   -3.040678     1.712474     0.683525     1.200000     0.950000
   -2.532766    -0.458144     0.574312     1.700000     0.950000
   -3.601447    -0.715834     0.575953     1.200000     0.950000
   -2.193607    -0.635306     1.603677     1.200000     0.950000


