%chk=scr.chk
%nproc=6
#p ub3lyp/6-31g(d)
# scrf=(iefpcm,solvent=Cyclohexane,read) nosym guess=only pop=none 

endo-2TS 
xp-pcm with Vmol=108.160262177098 cm^3/mol 

0 1
 C 2.468892 0.284095 -0.708957 
 C 1.667254 1.330389 0.031252 
 C 1.087601 1.075991 1.256922 
 C 0.689250 -0.234741 1.575517 
 C 0.886557 -1.229380 0.609039 
 C 2.185072 -1.148363 -0.185946 
 H 0.754870 1.903944 1.878564 
 H 1.804474 2.361213 -0.290944 
 H 2.289282 0.358101 -1.789365 
 H 3.538694 0.506111 -0.581025 
 H 0.057564 -0.414132 2.441200 
 H 0.559304 -2.241378 0.845590 
 H 2.995597 -1.451049 0.490252 
 H 2.187529 -1.871427 -1.009641 
 C -0.429793 0.553269 -1.228382 
 C -0.468367 -0.818307 -0.924402 
 H 0.178899 0.920914 -2.045953 
 H 0.039438 -1.478372 -1.626777 
 C -1.793403 -1.381477 -0.412965 
 H -2.433705 -1.525729 -1.296815 
 H -1.657728 -2.376149 0.027843 
 C -1.419929 1.435138 -0.644601 
 H -1.363311 2.495516 -0.884397 
 C -2.359563 1.000047 0.221263 
 H -3.040678 1.712474 0.683525 
 C -2.532766 -0.458144 0.574312 
 H -3.601447 -0.715834 0.575953 
 H -2.193607 -0.635306 1.603677        

norep  pcmdoc geomview  nodis cav g03defaults noaddsph  tsare=0.075 
nsfe=28
Vmol=108.160262177098 Rsolv=2.815 

    1     2.040000     1.000000
    2     2.040000     1.000000
    3     2.040000     1.000000
    4     2.040000     1.000000
    5     2.040000     1.000000
    6     2.040000     1.000000
    7     1.440000     1.000000
    8     1.440000     1.000000
    9     1.440000     1.000000
   10     1.440000     1.000000
   11     1.440000     1.000000
   12     1.440000     1.000000
   13     1.440000     1.000000
   14     1.440000     1.000000
   15     2.040000     1.000000
   16     2.040000     1.000000
   17     1.440000     1.000000
   18     1.440000     1.000000
   19     2.040000     1.000000
   20     1.440000     1.000000
   21     1.440000     1.000000
   22     2.040000     1.000000
   23     1.440000     1.000000
   24     2.040000     1.000000
   25     1.440000     1.000000
   26     2.040000     1.000000
   27     1.440000     1.000000
   28     1.440000     1.000000

--link1--

%chk=scr.chk
%nproc=6
#p ub3lyp/6-31g(d)
# scrf=(iefpcm,solvent=Cyclohexane,read) nosym guess=only pop=none 

endo-2TS 
xp-pcm with Vmol=101.082339588033 cm^3/mol 

0 1
 C 2.468892 0.284095 -0.708957 
 C 1.667254 1.330389 0.031252 
 C 1.087601 1.075991 1.256922 
 C 0.689250 -0.234741 1.575517 
 C 0.886557 -1.229380 0.609039 
 C 2.185072 -1.148363 -0.185946 
 H 0.754870 1.903944 1.878564 
 H 1.804474 2.361213 -0.290944 
 H 2.289282 0.358101 -1.789365 
 H 3.538694 0.506111 -0.581025 
 H 0.057564 -0.414132 2.441200 
 H 0.559304 -2.241378 0.845590 
 H 2.995597 -1.451049 0.490252 
 H 2.187529 -1.871427 -1.009641 
 C -0.429793 0.553269 -1.228382 
 C -0.468367 -0.818307 -0.924402 
 H 0.178899 0.920914 -2.045953 
 H 0.039438 -1.478372 -1.626777 
 C -1.793403 -1.381477 -0.412965 
 H -2.433705 -1.525729 -1.296815 
 H -1.657728 -2.376149 0.027843 
 C -1.419929 1.435138 -0.644601 
 H -1.363311 2.495516 -0.884397 
 C -2.359563 1.000047 0.221263 
 H -3.040678 1.712474 0.683525 
 C -2.532766 -0.458144 0.574312 
 H -3.601447 -0.715834 0.575953 
 H -2.193607 -0.635306 1.603677        

norep  pcmdoc geomview  nodis cav g03defaults noaddsph  tsare=0.075 
nsfe=28
Vmol=101.082339588033 Rsolv=2.815 

    1     2.040000     1.000000
    2     2.040000     1.000000
    3     2.040000     1.000000
    4     2.040000     1.000000
    5     2.040000     1.000000
    6     2.040000     1.000000
    7     1.440000     1.000000
    8     1.440000     1.000000
    9     1.440000     1.000000
   10     1.440000     1.000000
   11     1.440000     1.000000
   12     1.440000     1.000000
   13     1.440000     1.000000
   14     1.440000     1.000000
   15     2.040000     1.000000
   16     2.040000     1.000000
   17     1.440000     1.000000
   18     1.440000     1.000000
   19     2.040000     1.000000
   20     1.440000     1.000000
   21     1.440000     1.000000
   22     2.040000     1.000000
   23     1.440000     1.000000
   24     2.040000     1.000000
   25     1.440000     1.000000
   26     2.040000     1.000000
   27     1.440000     1.000000
   28     1.440000     1.000000

--link1--

%chk=scr.chk
%nproc=6
#p ub3lyp/6-31g(d)
# scrf=(iefpcm,solvent=Cyclohexane,read) nosym guess=only pop=none 

endo-2TS 
xp-pcm with Vmol=94.6453164082644 cm^3/mol 

0 1
 C 2.468892 0.284095 -0.708957 
 C 1.667254 1.330389 0.031252 
 C 1.087601 1.075991 1.256922 
 C 0.689250 -0.234741 1.575517 
 C 0.886557 -1.229380 0.609039 
 C 2.185072 -1.148363 -0.185946 
 H 0.754870 1.903944 1.878564 
 H 1.804474 2.361213 -0.290944 
 H 2.289282 0.358101 -1.789365 
 H 3.538694 0.506111 -0.581025 
 H 0.057564 -0.414132 2.441200 
 H 0.559304 -2.241378 0.845590 
 H 2.995597 -1.451049 0.490252 
 H 2.187529 -1.871427 -1.009641 
 C -0.429793 0.553269 -1.228382 
 C -0.468367 -0.818307 -0.924402 
 H 0.178899 0.920914 -2.045953 
 H 0.039438 -1.478372 -1.626777 
 C -1.793403 -1.381477 -0.412965 
 H -2.433705 -1.525729 -1.296815 
 H -1.657728 -2.376149 0.027843 
 C -1.419929 1.435138 -0.644601 
 H -1.363311 2.495516 -0.884397 
 C -2.359563 1.000047 0.221263 
 H -3.040678 1.712474 0.683525 
 C -2.532766 -0.458144 0.574312 
 H -3.601447 -0.715834 0.575953 
 H -2.193607 -0.635306 1.603677        

norep  pcmdoc geomview  nodis cav g03defaults noaddsph  tsare=0.075 
nsfe=28
Vmol=94.6453164082644 Rsolv=2.815 

    1     2.040000     1.000000
    2     2.040000     1.000000
    3     2.040000     1.000000
    4     2.040000     1.000000
    5     2.040000     1.000000
    6     2.040000     1.000000
    7     1.440000     1.000000
    8     1.440000     1.000000
    9     1.440000     1.000000
   10     1.440000     1.000000
   11     1.440000     1.000000
   12     1.440000     1.000000
   13     1.440000     1.000000
   14     1.440000     1.000000
   15     2.040000     1.000000
   16     2.040000     1.000000
   17     1.440000     1.000000
   18     1.440000     1.000000
   19     2.040000     1.000000
   20     1.440000     1.000000
   21     1.440000     1.000000
   22     2.040000     1.000000
   23     1.440000     1.000000
   24     2.040000     1.000000
   25     1.440000     1.000000
   26     2.040000     1.000000
   27     1.440000     1.000000
   28     1.440000     1.000000

--link1--

%chk=scr.chk
%nproc=6
#p ub3lyp/6-31g(d)
# scrf=(iefpcm,solvent=Cyclohexane,read) nosym guess=only pop=none 

endo-2TS 
xp-pcm with Vmol=88.5652404236064 cm^3/mol 

0 1
 C 2.468892 0.284095 -0.708957 
 C 1.667254 1.330389 0.031252 
 C 1.087601 1.075991 1.256922 
 C 0.689250 -0.234741 1.575517 
 C 0.886557 -1.229380 0.609039 
 C 2.185072 -1.148363 -0.185946 
 H 0.754870 1.903944 1.878564 
 H 1.804474 2.361213 -0.290944 
 H 2.289282 0.358101 -1.789365 
 H 3.538694 0.506111 -0.581025 
 H 0.057564 -0.414132 2.441200 
 H 0.559304 -2.241378 0.845590 
 H 2.995597 -1.451049 0.490252 
 H 2.187529 -1.871427 -1.009641 
 C -0.429793 0.553269 -1.228382 
 C -0.468367 -0.818307 -0.924402 
 H 0.178899 0.920914 -2.045953 
 H 0.039438 -1.478372 -1.626777 
 C -1.793403 -1.381477 -0.412965 
 H -2.433705 -1.525729 -1.296815 
 H -1.657728 -2.376149 0.027843 
 C -1.419929 1.435138 -0.644601 
 H -1.363311 2.495516 -0.884397 
 C -2.359563 1.000047 0.221263 
 H -3.040678 1.712474 0.683525 
 C -2.532766 -0.458144 0.574312 
 H -3.601447 -0.715834 0.575953 
 H -2.193607 -0.635306 1.603677        

norep  pcmdoc geomview  nodis cav g03defaults noaddsph  tsare=0.075 
nsfe=28
Vmol=88.5652404236064 Rsolv=2.815 

    1     2.040000     1.000000
    2     2.040000     1.000000
    3     2.040000     1.000000
    4     2.040000     1.000000
    5     2.040000     1.000000
    6     2.040000     1.000000
    7     1.440000     1.000000
    8     1.440000     1.000000
    9     1.440000     1.000000
   10     1.440000     1.000000
   11     1.440000     1.000000
   12     1.440000     1.000000
   13     1.440000     1.000000
   14     1.440000     1.000000
   15     2.040000     1.000000
   16     2.040000     1.000000
   17     1.440000     1.000000
   18     1.440000     1.000000
   19     2.040000     1.000000
   20     1.440000     1.000000
   21     1.440000     1.000000
   22     2.040000     1.000000
   23     1.440000     1.000000
   24     2.040000     1.000000
   25     1.440000     1.000000
   26     2.040000     1.000000
   27     1.440000     1.000000
   28     1.440000     1.000000

--link1--

%chk=scr.chk
%nproc=6
#p ub3lyp/6-31g(d)
# scrf=(iefpcm,solvent=Cyclohexane,read) nosym guess=only pop=none 

endo-2TS 
xp-pcm with Vmol=82.6927735155089 cm^3/mol 

0 1
 C 2.468892 0.284095 -0.708957 
 C 1.667254 1.330389 0.031252 
 C 1.087601 1.075991 1.256922 
 C 0.689250 -0.234741 1.575517 
 C 0.886557 -1.229380 0.609039 
 C 2.185072 -1.148363 -0.185946 
 H 0.754870 1.903944 1.878564 
 H 1.804474 2.361213 -0.290944 
 H 2.289282 0.358101 -1.789365 
 H 3.538694 0.506111 -0.581025 
 H 0.057564 -0.414132 2.441200 
 H 0.559304 -2.241378 0.845590 
 H 2.995597 -1.451049 0.490252 
 H 2.187529 -1.871427 -1.009641 
 C -0.429793 0.553269 -1.228382 
 C -0.468367 -0.818307 -0.924402 
 H 0.178899 0.920914 -2.045953 
 H 0.039438 -1.478372 -1.626777 
 C -1.793403 -1.381477 -0.412965 
 H -2.433705 -1.525729 -1.296815 
 H -1.657728 -2.376149 0.027843 
 C -1.419929 1.435138 -0.644601 
 H -1.363311 2.495516 -0.884397 
 C -2.359563 1.000047 0.221263 
 H -3.040678 1.712474 0.683525 
 C -2.532766 -0.458144 0.574312 
 H -3.601447 -0.715834 0.575953 
 H -2.193607 -0.635306 1.603677        

norep  pcmdoc geomview  nodis cav g03defaults noaddsph  tsare=0.075 
nsfe=28
Vmol=82.6927735155089 Rsolv=2.815 

    1     2.040000     1.000000
    2     2.040000     1.000000
    3     2.040000     1.000000
    4     2.040000     1.000000
    5     2.040000     1.000000
    6     2.040000     1.000000
    7     1.440000     1.000000
    8     1.440000     1.000000
    9     1.440000     1.000000
   10     1.440000     1.000000
   11     1.440000     1.000000
   12     1.440000     1.000000
   13     1.440000     1.000000
   14     1.440000     1.000000
   15     2.040000     1.000000
   16     2.040000     1.000000
   17     1.440000     1.000000
   18     1.440000     1.000000
   19     2.040000     1.000000
   20     1.440000     1.000000
   21     1.440000     1.000000
   22     2.040000     1.000000
   23     1.440000     1.000000
   24     2.040000     1.000000
   25     1.440000     1.000000
   26     2.040000     1.000000
   27     1.440000     1.000000
   28     1.440000     1.000000

--link1--

%chk=scr.chk
%nproc=6
#p ub3lyp/6-31g(d)
# scrf=(iefpcm,solvent=Cyclohexane,read) nosym guess=only pop=none 

endo-2TS 
xp-pcm with Vmol=79.6894830457125 cm^3/mol 

0 1
 C 2.468892 0.284095 -0.708957 
 C 1.667254 1.330389 0.031252 
 C 1.087601 1.075991 1.256922 
 C 0.689250 -0.234741 1.575517 
 C 0.886557 -1.229380 0.609039 
 C 2.185072 -1.148363 -0.185946 
 H 0.754870 1.903944 1.878564 
 H 1.804474 2.361213 -0.290944 
 H 2.289282 0.358101 -1.789365 
 H 3.538694 0.506111 -0.581025 
 H 0.057564 -0.414132 2.441200 
 H 0.559304 -2.241378 0.845590 
 H 2.995597 -1.451049 0.490252 
 H 2.187529 -1.871427 -1.009641 
 C -0.429793 0.553269 -1.228382 
 C -0.468367 -0.818307 -0.924402 
 H 0.178899 0.920914 -2.045953 
 H 0.039438 -1.478372 -1.626777 
 C -1.793403 -1.381477 -0.412965 
 H -2.433705 -1.525729 -1.296815 
 H -1.657728 -2.376149 0.027843 
 C -1.419929 1.435138 -0.644601 
 H -1.363311 2.495516 -0.884397 
 C -2.359563 1.000047 0.221263 
 H -3.040678 1.712474 0.683525 
 C -2.532766 -0.458144 0.574312 
 H -3.601447 -0.715834 0.575953 
 H -2.193607 -0.635306 1.603677        

norep  pcmdoc geomview  nodis cav g03defaults noaddsph  tsare=0.075 
nsfe=28
Vmol=79.6894830457125 Rsolv=2.815 

    1     2.040000     1.000000
    2     2.040000     1.000000
    3     2.040000     1.000000
    4     2.040000     1.000000
    5     2.040000     1.000000
    6     2.040000     1.000000
    7     1.440000     1.000000
    8     1.440000     1.000000
    9     1.440000     1.000000
   10     1.440000     1.000000
   11     1.440000     1.000000
   12     1.440000     1.000000
   13     1.440000     1.000000
   14     1.440000     1.000000
   15     2.040000     1.000000
   16     2.040000     1.000000
   17     1.440000     1.000000
   18     1.440000     1.000000
   19     2.040000     1.000000
   20     1.440000     1.000000
   21     1.440000     1.000000
   22     2.040000     1.000000
   23     1.440000     1.000000
   24     2.040000     1.000000
   25     1.440000     1.000000
   26     2.040000     1.000000
   27     1.440000     1.000000
   28     1.440000     1.000000

--link1--

%chk=scr.chk
%nproc=6
#p ub3lyp/6-31g(d)
# scrf=(iefpcm,solvent=Cyclohexane,read) nosym guess=only pop=none 

endo-2TS 
xp-pcm with Vmol=76.836613016272 cm^3/mol 

0 1
 C 2.468892 0.284095 -0.708957 
 C 1.667254 1.330389 0.031252 
 C 1.087601 1.075991 1.256922 
 C 0.689250 -0.234741 1.575517 
 C 0.886557 -1.229380 0.609039 
 C 2.185072 -1.148363 -0.185946 
 H 0.754870 1.903944 1.878564 
 H 1.804474 2.361213 -0.290944 
 H 2.289282 0.358101 -1.789365 
 H 3.538694 0.506111 -0.581025 
 H 0.057564 -0.414132 2.441200 
 H 0.559304 -2.241378 0.845590 
 H 2.995597 -1.451049 0.490252 
 H 2.187529 -1.871427 -1.009641 
 C -0.429793 0.553269 -1.228382 
 C -0.468367 -0.818307 -0.924402 
 H 0.178899 0.920914 -2.045953 
 H 0.039438 -1.478372 -1.626777 
 C -1.793403 -1.381477 -0.412965 
 H -2.433705 -1.525729 -1.296815 
 H -1.657728 -2.376149 0.027843 
 C -1.419929 1.435138 -0.644601 
 H -1.363311 2.495516 -0.884397 
 C -2.359563 1.000047 0.221263 
 H -3.040678 1.712474 0.683525 
 C -2.532766 -0.458144 0.574312 
 H -3.601447 -0.715834 0.575953 
 H -2.193607 -0.635306 1.603677        

norep  pcmdoc geomview  nodis cav g03defaults noaddsph  tsare=0.075 
nsfe=28
Vmol=76.836613016272 Rsolv=2.815 

    1     2.040000     1.000000
    2     2.040000     1.000000
    3     2.040000     1.000000
    4     2.040000     1.000000
    5     2.040000     1.000000
    6     2.040000     1.000000
    7     1.440000     1.000000
    8     1.440000     1.000000
    9     1.440000     1.000000
   10     1.440000     1.000000
   11     1.440000     1.000000
   12     1.440000     1.000000
   13     1.440000     1.000000
   14     1.440000     1.000000
   15     2.040000     1.000000
   16     2.040000     1.000000
   17     1.440000     1.000000
   18     1.440000     1.000000
   19     2.040000     1.000000
   20     1.440000     1.000000
   21     1.440000     1.000000
   22     2.040000     1.000000
   23     1.440000     1.000000
   24     2.040000     1.000000
   25     1.440000     1.000000
   26     2.040000     1.000000
   27     1.440000     1.000000
   28     1.440000     1.000000


