%nproc=24
%mem=48GB
#p wb97xd def2tzvp
# scrf=(iefpcm,solvent=Cyclohexane,read) nosym 6d 10f 

cyclohexadiene wb97xd/def2tzvp//wb97xd/def2tzvp
xp-pcm for eta=3

0 1
 C       -1.268219   -0.544265    0.160588 
 C       -1.168591    0.784355    0.162078 
 C        0.131055    1.449886   -0.197967 
 C        1.330673    0.590498    0.197963 
 C        1.118597   -0.854108   -0.162114 
 C       -0.107338   -1.375876   -0.160543 
 H        0.141251    1.619717   -1.283290 
 H       -2.213189   -1.028076    0.376236 
 H        2.239150    0.976392   -0.267055 
 H        1.983265   -1.475095   -0.364468 
 H       -0.261383   -2.426260   -0.376190 
 H       -2.034746    1.403292    0.364360 
 H        0.204154    2.434194    0.267093 
 H        1.488138    0.654781    1.283304 

norep pcmdoc geomview  nodis nocav g03defaults tsare=0.075 
nsfe=14
NVESolv=36  SolvMW=84.1595   Rsolv=2.815 
eps=2.0165 RhoS=0.7781

    1     1.700000     1.200000
    2     1.700000     1.200000
    3     1.700000     1.200000
    4     1.700000     1.200000
    5     1.700000     1.200000
    6     1.700000     1.200000
    7     1.200000     1.200000
    8     1.200000     1.200000
    9     1.200000     1.200000
   10     1.200000     1.200000
   11     1.200000     1.200000
   12     1.200000     1.200000
   13     1.200000     1.200000
   14     1.200000     1.200000

