%chk=1_xp-12.chk
%nproc=24
%mem=48GB
#p wb97xd def2tzvp
# scrf=(iefpcm,solvent=Cyclohexane,read) nosym guess=only pop=none 

cyclohexadiene wb97xd/def2tzvp//wb97xd/def2tzvp
xp-pcm for eta=3

0 1
 C       -1.268219   -0.544265    0.160588 
 C       -1.168591    0.784355    0.162078 
 C        0.131055    1.449886   -0.197967 
 C        1.330673    0.590498    0.197963 
 C        1.118597   -0.854108   -0.162114 
 C       -0.107338   -1.375876   -0.160543 
 H        0.141251    1.619717   -1.283290 
 H       -2.213189   -1.028076    0.376236 
 H        2.239150    0.976392   -0.267055 
 H        1.983265   -1.475095   -0.364468 
 H       -0.261383   -2.426260   -0.376190 
 H       -2.034746    1.403292    0.364360 
 H        0.204154    2.434194    0.267093 
 H        1.488138    0.654781    1.283304 

qrep pcmdoc geomview  nodis nocav g03defaults tsare=0.075 
nsfe=14
NVESolv=36  SolvMW=84.1595   Rsolv=2.815 
eps=2.0165 RhoS=0.7781

   -1.268219    -0.544265     0.160588     1.700000     1.200000
   -1.168591     0.784355     0.162078     1.700000     1.200000
    0.131055     1.449886    -0.197967     1.700000     1.200000
    1.330673     0.590498     0.197963     1.700000     1.200000
    1.118597    -0.854108    -0.162114     1.700000     1.200000
   -0.107338    -1.375876    -0.160543     1.700000     1.200000
    0.141251     1.619717    -1.283290     1.200000     1.200000
   -2.213189    -1.028076     0.376236     1.200000     1.200000
    2.239150     0.976392    -0.267055     1.200000     1.200000
    1.983265    -1.475095    -0.364468     1.200000     1.200000
   -0.261383    -2.426260    -0.376190     1.200000     1.200000
   -2.034746     1.403292     0.364360     1.200000     1.200000
    0.204154     2.434194     0.267093     1.200000     1.200000
    1.488138     0.654781     1.283304     1.200000     1.200000

--link1--
%chk=1_xp-115.chk
%nproc=24
%mem=48GB
#p wb97xd def2tzvp
# scrf=(iefpcm,solvent=Cyclohexane,read) nosym guess=only pop=none 

cyclohexadiene wb97xd/def2tzvp//wb97xd/def2tzvp
xp-pcm for eta=3

0 1
 C       -1.268219   -0.544265    0.160588 
 C       -1.168591    0.784355    0.162078 
 C        0.131055    1.449886   -0.197967 
 C        1.330673    0.590498    0.197963 
 C        1.118597   -0.854108   -0.162114 
 C       -0.107338   -1.375876   -0.160543 
 H        0.141251    1.619717   -1.283290 
 H       -2.213189   -1.028076    0.376236 
 H        2.239150    0.976392   -0.267055 
 H        1.983265   -1.475095   -0.364468 
 H       -0.261383   -2.426260   -0.376190 
 H       -2.034746    1.403292    0.364360 
 H        0.204154    2.434194    0.267093 
 H        1.488138    0.654781    1.283304 

qrep pcmdoc geomview  nodis nocav g03defaults tsare=0.075 
nsfe=14
NVESolv=36  SolvMW=84.1595   Rsolv=2.815 
eps=2.0165 RhoS=0.7781

   -1.268219    -0.544265     0.160588     1.700000     1.150000
   -1.168591     0.784355     0.162078     1.700000     1.150000
    0.131055     1.449886    -0.197967     1.700000     1.150000
    1.330673     0.590498     0.197963     1.700000     1.150000
    1.118597    -0.854108    -0.162114     1.700000     1.150000
   -0.107338    -1.375876    -0.160543     1.700000     1.150000
    0.141251     1.619717    -1.283290     1.200000     1.150000
   -2.213189    -1.028076     0.376236     1.200000     1.150000
    2.239150     0.976392    -0.267055     1.200000     1.150000
    1.983265    -1.475095    -0.364468     1.200000     1.150000
   -0.261383    -2.426260    -0.376190     1.200000     1.150000
   -2.034746     1.403292     0.364360     1.200000     1.150000
    0.204154     2.434194     0.267093     1.200000     1.150000
    1.488138     0.654781     1.283304     1.200000     1.150000

--link1--
%chk=1_xp-110.chk
%nproc=24
%mem=48GB
#p wb97xd def2tzvp
# scrf=(iefpcm,solvent=Cyclohexane,read) nosym guess=only pop=none 

cyclohexadiene wb97xd/def2tzvp//wb97xd/def2tzvp
xp-pcm for eta=3

0 1
 C       -1.268219   -0.544265    0.160588 
 C       -1.168591    0.784355    0.162078 
 C        0.131055    1.449886   -0.197967 
 C        1.330673    0.590498    0.197963 
 C        1.118597   -0.854108   -0.162114 
 C       -0.107338   -1.375876   -0.160543 
 H        0.141251    1.619717   -1.283290 
 H       -2.213189   -1.028076    0.376236 
 H        2.239150    0.976392   -0.267055 
 H        1.983265   -1.475095   -0.364468 
 H       -0.261383   -2.426260   -0.376190 
 H       -2.034746    1.403292    0.364360 
 H        0.204154    2.434194    0.267093 
 H        1.488138    0.654781    1.283304 

qrep pcmdoc geomview  nodis nocav g03defaults tsare=0.075 
nsfe=14
NVESolv=36  SolvMW=84.1595   Rsolv=2.815 
eps=2.0165 RhoS=0.7781

   -1.268219    -0.544265     0.160588     1.700000     1.100000
   -1.168591     0.784355     0.162078     1.700000     1.100000
    0.131055     1.449886    -0.197967     1.700000     1.100000
    1.330673     0.590498     0.197963     1.700000     1.100000
    1.118597    -0.854108    -0.162114     1.700000     1.100000
   -0.107338    -1.375876    -0.160543     1.700000     1.100000
    0.141251     1.619717    -1.283290     1.200000     1.100000
   -2.213189    -1.028076     0.376236     1.200000     1.100000
    2.239150     0.976392    -0.267055     1.200000     1.100000
    1.983265    -1.475095    -0.364468     1.200000     1.100000
   -0.261383    -2.426260    -0.376190     1.200000     1.100000
   -2.034746     1.403292     0.364360     1.200000     1.100000
    0.204154     2.434194     0.267093     1.200000     1.100000
    1.488138     0.654781     1.283304     1.200000     1.100000

--link1--
%chk=1_xp-105.chk
%nproc=24
%mem=48GB
#p wb97xd def2tzvp
# scrf=(iefpcm,solvent=Cyclohexane,read) nosym guess=only pop=none 

cyclohexadiene wb97xd/def2tzvp//wb97xd/def2tzvp
xp-pcm for eta=3

0 1
 C       -1.268219   -0.544265    0.160588 
 C       -1.168591    0.784355    0.162078 
 C        0.131055    1.449886   -0.197967 
 C        1.330673    0.590498    0.197963 
 C        1.118597   -0.854108   -0.162114 
 C       -0.107338   -1.375876   -0.160543 
 H        0.141251    1.619717   -1.283290 
 H       -2.213189   -1.028076    0.376236 
 H        2.239150    0.976392   -0.267055 
 H        1.983265   -1.475095   -0.364468 
 H       -0.261383   -2.426260   -0.376190 
 H       -2.034746    1.403292    0.364360 
 H        0.204154    2.434194    0.267093 
 H        1.488138    0.654781    1.283304 

qrep pcmdoc geomview  nodis nocav g03defaults tsare=0.075 
nsfe=14
NVESolv=36  SolvMW=84.1595   Rsolv=2.815 
eps=2.0165 RhoS=0.7781

   -1.268219    -0.544265     0.160588     1.700000     1.050000
   -1.168591     0.784355     0.162078     1.700000     1.050000
    0.131055     1.449886    -0.197967     1.700000     1.050000
    1.330673     0.590498     0.197963     1.700000     1.050000
    1.118597    -0.854108    -0.162114     1.700000     1.050000
   -0.107338    -1.375876    -0.160543     1.700000     1.050000
    0.141251     1.619717    -1.283290     1.200000     1.050000
   -2.213189    -1.028076     0.376236     1.200000     1.050000
    2.239150     0.976392    -0.267055     1.200000     1.050000
    1.983265    -1.475095    -0.364468     1.200000     1.050000
   -0.261383    -2.426260    -0.376190     1.200000     1.050000
   -2.034746     1.403292     0.364360     1.200000     1.050000
    0.204154     2.434194     0.267093     1.200000     1.050000
    1.488138     0.654781     1.283304     1.200000     1.050000

--link1--
%chk=1_xp-100.chk
%nproc=24
%mem=48GB
#p wb97xd def2tzvp
# scrf=(iefpcm,solvent=Cyclohexane,read) nosym guess=only pop=none 

cyclohexadiene wb97xd/def2tzvp//wb97xd/def2tzvp
xp-pcm for eta=3

0 1
 C       -1.268219   -0.544265    0.160588 
 C       -1.168591    0.784355    0.162078 
 C        0.131055    1.449886   -0.197967 
 C        1.330673    0.590498    0.197963 
 C        1.118597   -0.854108   -0.162114 
 C       -0.107338   -1.375876   -0.160543 
 H        0.141251    1.619717   -1.283290 
 H       -2.213189   -1.028076    0.376236 
 H        2.239150    0.976392   -0.267055 
 H        1.983265   -1.475095   -0.364468 
 H       -0.261383   -2.426260   -0.376190 
 H       -2.034746    1.403292    0.364360 
 H        0.204154    2.434194    0.267093 
 H        1.488138    0.654781    1.283304 

qrep pcmdoc geomview  nodis nocav g03defaults tsare=0.075 
nsfe=14
NVESolv=36  SolvMW=84.1595   Rsolv=2.815 
eps=2.0165 RhoS=0.7781

   -1.268219    -0.544265     0.160588     1.700000     1.000000
   -1.168591     0.784355     0.162078     1.700000     1.000000
    0.131055     1.449886    -0.197967     1.700000     1.000000
    1.330673     0.590498     0.197963     1.700000     1.000000
    1.118597    -0.854108    -0.162114     1.700000     1.000000
   -0.107338    -1.375876    -0.160543     1.700000     1.000000
    0.141251     1.619717    -1.283290     1.200000     1.000000
   -2.213189    -1.028076     0.376236     1.200000     1.000000
    2.239150     0.976392    -0.267055     1.200000     1.000000
    1.983265    -1.475095    -0.364468     1.200000     1.000000
   -0.261383    -2.426260    -0.376190     1.200000     1.000000
   -2.034746     1.403292     0.364360     1.200000     1.000000
    0.204154     2.434194     0.267093     1.200000     1.000000
    1.488138     0.654781     1.283304     1.200000     1.000000

--link1--
%chk=1_xp-0975.chk
%nproc=24
%mem=48GB
#p wb97xd def2tzvp
# scrf=(iefpcm,solvent=Cyclohexane,read) nosym guess=only pop=none 

cyclohexadiene wb97xd/def2tzvp//wb97xd/def2tzvp
xp-pcm for eta=3

0 1
 C       -1.268219   -0.544265    0.160588 
 C       -1.168591    0.784355    0.162078 
 C        0.131055    1.449886   -0.197967 
 C        1.330673    0.590498    0.197963 
 C        1.118597   -0.854108   -0.162114 
 C       -0.107338   -1.375876   -0.160543 
 H        0.141251    1.619717   -1.283290 
 H       -2.213189   -1.028076    0.376236 
 H        2.239150    0.976392   -0.267055 
 H        1.983265   -1.475095   -0.364468 
 H       -0.261383   -2.426260   -0.376190 
 H       -2.034746    1.403292    0.364360 
 H        0.204154    2.434194    0.267093 
 H        1.488138    0.654781    1.283304 

qrep pcmdoc geomview  nodis nocav g03defaults tsare=0.075 
nsfe=14
NVESolv=36  SolvMW=84.1595   Rsolv=2.815 
eps=2.0165 RhoS=0.7781

   -1.268219    -0.544265     0.160588     1.700000     0.975000
   -1.168591     0.784355     0.162078     1.700000     0.975000
    0.131055     1.449886    -0.197967     1.700000     0.975000
    1.330673     0.590498     0.197963     1.700000     0.975000
    1.118597    -0.854108    -0.162114     1.700000     0.975000
   -0.107338    -1.375876    -0.160543     1.700000     0.975000
    0.141251     1.619717    -1.283290     1.200000     0.975000
   -2.213189    -1.028076     0.376236     1.200000     0.975000
    2.239150     0.976392    -0.267055     1.200000     0.975000
    1.983265    -1.475095    -0.364468     1.200000     0.975000
   -0.261383    -2.426260    -0.376190     1.200000     0.975000
   -2.034746     1.403292     0.364360     1.200000     0.975000
    0.204154     2.434194     0.267093     1.200000     0.975000
    1.488138     0.654781     1.283304     1.200000     0.975000

--link1--
%chk=1_xp-095.chk
%nproc=24
%mem=48GB
#p wb97xd def2tzvp
# scrf=(iefpcm,solvent=Cyclohexane,read) nosym guess=only pop=none 

cyclohexadiene wb97xd/def2tzvp//wb97xd/def2tzvp
xp-pcm for eta=3

0 1
 C       -1.268219   -0.544265    0.160588 
 C       -1.168591    0.784355    0.162078 
 C        0.131055    1.449886   -0.197967 
 C        1.330673    0.590498    0.197963 
 C        1.118597   -0.854108   -0.162114 
 C       -0.107338   -1.375876   -0.160543 
 H        0.141251    1.619717   -1.283290 
 H       -2.213189   -1.028076    0.376236 
 H        2.239150    0.976392   -0.267055 
 H        1.983265   -1.475095   -0.364468 
 H       -0.261383   -2.426260   -0.376190 
 H       -2.034746    1.403292    0.364360 
 H        0.204154    2.434194    0.267093 
 H        1.488138    0.654781    1.283304 

qrep pcmdoc geomview  nodis nocav g03defaults tsare=0.075 
nsfe=14
NVESolv=36  SolvMW=84.1595   Rsolv=2.815 
eps=2.0165 RhoS=0.7781

   -1.268219    -0.544265     0.160588     1.700000     0.950000
   -1.168591     0.784355     0.162078     1.700000     0.950000
    0.131055     1.449886    -0.197967     1.700000     0.950000
    1.330673     0.590498     0.197963     1.700000     0.950000
    1.118597    -0.854108    -0.162114     1.700000     0.950000
   -0.107338    -1.375876    -0.160543     1.700000     0.950000
    0.141251     1.619717    -1.283290     1.200000     0.950000
   -2.213189    -1.028076     0.376236     1.200000     0.950000
    2.239150     0.976392    -0.267055     1.200000     0.950000
    1.983265    -1.475095    -0.364468     1.200000     0.950000
   -0.261383    -2.426260    -0.376190     1.200000     0.950000
   -2.034746     1.403292     0.364360     1.200000     0.950000
    0.204154     2.434194     0.267093     1.200000     0.950000
    1.488138     0.654781     1.283304     1.200000     0.950000

