%nproc=24
%mem=48GB
#p uwb97xd guess=mix def2tzvp 

endo-2

0 1
  6  -3.119120  -0.431065   0.247523 
  6  -0.493696  -0.157603  -0.834073 
  1  -4.084239  -0.548656   0.725587 
  1   0.350973  -0.115458  -1.514853 
  6   1.106327   1.420781   0.680099 
  6   0.493696   0.157603   0.834073 
  1   0.546352   2.323548   0.888233 
  1  -0.350973   0.115458   1.514853 
  6   1.462239  -0.999765   0.987272 
  1   1.897620  -0.934699   1.990150 
  1   0.931089  -1.950901   0.937228 
  6   2.405204   1.523274   0.118717 
  1   2.824361   2.509612  -0.044460 
  6   3.119120   0.431065  -0.247523 
  1   4.084239   0.548656  -0.725586 
  6   2.592333  -0.958618  -0.043288 
  1   2.248109  -1.357117  -1.006272 
  1   3.401305  -1.622773   0.270869 
  6  -1.106327  -1.420781  -0.680099 
  1  -0.546352  -2.323548  -0.888233 
  6  -2.405204  -1.523274  -0.118717 
  1  -2.824361  -2.509612   0.044460 
  6  -1.462239   0.999765  -0.987272 
  1  -0.931089   1.950901  -0.937228 
  1  -1.897620   0.934699  -1.990150 
  6  -2.592333   0.958618   0.043288 
  1  -3.401305   1.622773  -0.270869 
  1  -2.248109   1.357117   1.006272 

