%nproc=24
%mem=48GB
#p uwb97xd guess=mix def2tzvp 

endo-2

0 1
  6  -3.119048  -0.437021   0.247200 
  6  -0.564806  -0.200504  -0.950322 
  1  -4.083226  -0.549832   0.729159 
  1   0.380988  -0.117643  -1.467059 
  6   1.090705   1.405086   0.691126 
  6   0.564806   0.200504   0.950322 
  1   0.518435   2.308479   0.859214 
  1  -0.380988   0.117643   1.467059 
  6   1.468592  -0.999527   0.992012 
  1   1.917536  -0.981799   1.992599 
  1   0.908435  -1.930655   0.922428 
  6   2.419154   1.515977   0.112171 
  1   2.828061   2.505229  -0.056516 
  6   3.119048   0.437021  -0.247200 
  1   4.083226   0.549832  -0.729159 
  6   2.591591  -0.957671  -0.045149 
  1   2.252197  -1.355163  -1.009700 
  1   3.400493  -1.619880   0.270955 
  6  -1.090705  -1.405086  -0.691126 
  1  -0.518435  -2.308479  -0.859214 
  6  -2.419154  -1.515977  -0.112171 
  1  -2.828061  -2.505229   0.056516 
  6  -1.468592   0.999527  -0.992012 
  1  -0.908434   1.930655  -0.922428 
  1  -1.917536   0.981799  -1.992599 
  6  -2.591591   0.957671   0.045149 
  1  -3.400493   1.619880  -0.270955 
  1  -2.252197   1.355163   1.009700 

