%nproc=24
%mem=48GB
#p uwb97xd guess=mix def2tzvp 

endo-2

0 1
  6  -3.120794  -0.439652   0.279379 
  6  -0.804368  -0.269440  -1.343825 
  1  -4.041049  -0.520180   0.846282 
  1   0.122915  -0.195250  -1.899002 
  6   1.218735   1.438062   0.862036 
  6   0.804368   0.269440   1.343825 
  1   0.631296   2.336300   1.011508 
  1  -0.122915   0.195250   1.899002 
  6   1.632669  -0.973943   1.191718 
  1   2.233015  -1.091288   2.103396 
  1   0.984518  -1.850141   1.138967 
  6   2.481067   1.534793   0.127081 
  1   2.881690   2.517274  -0.092282 
  6   3.120794   0.439652  -0.279379 
  1   4.041049   0.520180  -0.846282 
  6   2.552789  -0.931090  -0.031285 
  1   1.997514  -1.239149  -0.925691 
  1   3.357161  -1.659655   0.085583 
  6  -1.218735  -1.438062  -0.862036 
  1  -0.631296  -2.336300  -1.011508 
  6  -2.481067  -1.534793  -0.127081 
  1  -2.881690  -2.517274   0.092282 
  6  -1.632669   0.973943  -1.191718 
  1  -0.984518   1.850141  -1.138967 
  1  -2.233015   1.091288  -2.103396 
  6  -2.552789   0.931090   0.031285 
  1  -3.357161   1.659655  -0.085583 
  1  -1.997514   1.239149   0.925691 

