%chk=scr.chk
%nproc=24
%mem=48GB
#p uwb97xd guess=mix def2tzvp 
# scrf=(iefpcm,solvent=Cyclohexane,read) nosym guess=only pop=none 

endo-2
xp-pcm with Vmol=108.160262177098 cm^3/mol 

0 1
  6  -3.124680  -0.440685   0.273036 
  6  -0.775792  -0.261985  -1.302176 
  1  -4.054066  -0.525819   0.824190 
  1   0.161604  -0.184531  -1.839436 
  6   1.198536   1.432924   0.834184 
  6   0.775792   0.261985   1.302176 
  1   0.608196   2.330179   0.977711 
  1  -0.161604   0.184531   1.839436 
  6   1.605227  -0.981794   1.161635 
  1   2.176937  -1.108268   2.090145 
  1   0.956297  -1.855279   1.083849 
  6   2.471867   1.533139   0.119408 
  1   2.871405   2.516926  -0.096077 
  6   3.124680   0.440685  -0.273036 
  1   4.054066   0.525819  -0.824190 
  6   2.563488  -0.934271  -0.032474 
  1   2.043317  -1.256129  -0.942998 
  1   3.372415  -1.652191   0.115362 
  6  -1.198536  -1.432924  -0.834184 
  1  -0.608196  -2.330179  -0.977711 
  6  -2.471867  -1.533139  -0.119408 
  1  -2.871405  -2.516926   0.096077 
  6  -1.605227   0.981794  -1.161635 
  1  -0.956297   1.855279  -1.083849 
  1  -2.176937   1.108268  -2.090145 
  6  -2.563488   0.934271   0.032474 
  1  -3.372415   1.652191  -0.115362 
  1  -2.043317   1.256129   0.942998 

norep  pcmdoc geomview  nodis cav g03defaults noaddsph  tsare=0.075 
nsfe=28
Vmol=108.160262177098 Rsolv=2.815 

    1     2.040000     1.000000
    2     2.040000     1.000000
    3     1.440000     1.000000
    4     1.440000     1.000000
    5     2.040000     1.000000
    6     2.040000     1.000000
    7     1.440000     1.000000
    8     1.440000     1.000000
    9     2.040000     1.000000
   10     1.440000     1.000000
   11     1.440000     1.000000
   12     2.040000     1.000000
   13     1.440000     1.000000
   14     2.040000     1.000000
   15     1.440000     1.000000
   16     2.040000     1.000000
   17     1.440000     1.000000
   18     1.440000     1.000000
   19     2.040000     1.000000
   20     1.440000     1.000000
   21     2.040000     1.000000
   22     1.440000     1.000000
   23     2.040000     1.000000
   24     1.440000     1.000000
   25     1.440000     1.000000
   26     2.040000     1.000000
   27     1.440000     1.000000
   28     1.440000     1.000000

--link1--
%chk=scr.chk
%nproc=24
%mem=48GB
#p uwb97xd guess=mix def2tzvp 
# scrf=(iefpcm,solvent=Cyclohexane,read) nosym guess=only pop=none 

endo-2
xp-pcm with Vmol=101.730197792279 cm^3/mol 

0 1
  6  -3.124680  -0.440685   0.273036 
  6  -0.775792  -0.261985  -1.302176 
  1  -4.054066  -0.525819   0.824190 
  1   0.161604  -0.184531  -1.839436 
  6   1.198536   1.432924   0.834184 
  6   0.775792   0.261985   1.302176 
  1   0.608196   2.330179   0.977711 
  1  -0.161604   0.184531   1.839436 
  6   1.605227  -0.981794   1.161635 
  1   2.176937  -1.108268   2.090145 
  1   0.956297  -1.855279   1.083849 
  6   2.471867   1.533139   0.119408 
  1   2.871405   2.516926  -0.096077 
  6   3.124680   0.440685  -0.273036 
  1   4.054066   0.525819  -0.824190 
  6   2.563488  -0.934271  -0.032474 
  1   2.043317  -1.256129  -0.942998 
  1   3.372415  -1.652191   0.115362 
  6  -1.198536  -1.432924  -0.834184 
  1  -0.608196  -2.330179  -0.977711 
  6  -2.471867  -1.533139  -0.119408 
  1  -2.871405  -2.516926   0.096077 
  6  -1.605227   0.981794  -1.161635 
  1  -0.956297   1.855279  -1.083849 
  1  -2.176937   1.108268  -2.090145 
  6  -2.563488   0.934271   0.032474 
  1  -3.372415   1.652191  -0.115362 
  1  -2.043317   1.256129   0.942998 

norep  pcmdoc geomview  nodis cav g03defaults noaddsph  tsare=0.075 
nsfe=28
Vmol=101.730197792279 Rsolv=2.815 

    1     2.040000     1.000000
    2     2.040000     1.000000
    3     1.440000     1.000000
    4     1.440000     1.000000
    5     2.040000     1.000000
    6     2.040000     1.000000
    7     1.440000     1.000000
    8     1.440000     1.000000
    9     2.040000     1.000000
   10     1.440000     1.000000
   11     1.440000     1.000000
   12     2.040000     1.000000
   13     1.440000     1.000000
   14     2.040000     1.000000
   15     1.440000     1.000000
   16     2.040000     1.000000
   17     1.440000     1.000000
   18     1.440000     1.000000
   19     2.040000     1.000000
   20     1.440000     1.000000
   21     2.040000     1.000000
   22     1.440000     1.000000
   23     2.040000     1.000000
   24     1.440000     1.000000
   25     1.440000     1.000000
   26     2.040000     1.000000
   27     1.440000     1.000000
   28     1.440000     1.000000

--link1--
%chk=scr.chk
%nproc=24
%mem=48GB
#p uwb97xd guess=mix def2tzvp 
# scrf=(iefpcm,solvent=Cyclohexane,read) nosym guess=only pop=none 

endo-2
xp-pcm with Vmol=95.7726100512575 cm^3/mol 

0 1
  6  -3.124680  -0.440685   0.273036 
  6  -0.775792  -0.261985  -1.302176 
  1  -4.054066  -0.525819   0.824190 
  1   0.161604  -0.184531  -1.839436 
  6   1.198536   1.432924   0.834184 
  6   0.775792   0.261985   1.302176 
  1   0.608196   2.330179   0.977711 
  1  -0.161604   0.184531   1.839436 
  6   1.605227  -0.981794   1.161635 
  1   2.176937  -1.108268   2.090145 
  1   0.956297  -1.855279   1.083849 
  6   2.471867   1.533139   0.119408 
  1   2.871405   2.516926  -0.096077 
  6   3.124680   0.440685  -0.273036 
  1   4.054066   0.525819  -0.824190 
  6   2.563488  -0.934271  -0.032474 
  1   2.043317  -1.256129  -0.942998 
  1   3.372415  -1.652191   0.115362 
  6  -1.198536  -1.432924  -0.834184 
  1  -0.608196  -2.330179  -0.977711 
  6  -2.471867  -1.533139  -0.119408 
  1  -2.871405  -2.516926   0.096077 
  6  -1.605227   0.981794  -1.161635 
  1  -0.956297   1.855279  -1.083849 
  1  -2.176937   1.108268  -2.090145 
  6  -2.563488   0.934271   0.032474 
  1  -3.372415   1.652191  -0.115362 
  1  -2.043317   1.256129   0.942998 

norep  pcmdoc geomview  nodis cav g03defaults noaddsph  tsare=0.075 
nsfe=28
Vmol=95.7726100512575 Rsolv=2.815 

    1     2.040000     1.000000
    2     2.040000     1.000000
    3     1.440000     1.000000
    4     1.440000     1.000000
    5     2.040000     1.000000
    6     2.040000     1.000000
    7     1.440000     1.000000
    8     1.440000     1.000000
    9     2.040000     1.000000
   10     1.440000     1.000000
   11     1.440000     1.000000
   12     2.040000     1.000000
   13     1.440000     1.000000
   14     2.040000     1.000000
   15     1.440000     1.000000
   16     2.040000     1.000000
   17     1.440000     1.000000
   18     1.440000     1.000000
   19     2.040000     1.000000
   20     1.440000     1.000000
   21     2.040000     1.000000
   22     1.440000     1.000000
   23     2.040000     1.000000
   24     1.440000     1.000000
   25     1.440000     1.000000
   26     2.040000     1.000000
   27     1.440000     1.000000
   28     1.440000     1.000000

--link1--
%chk=scr.chk
%nproc=24
%mem=48GB
#p uwb97xd guess=mix def2tzvp 
# scrf=(iefpcm,solvent=Cyclohexane,read) nosym guess=only pop=none 

endo-2
xp-pcm with Vmol=89.84123994485 cm^3/mol 

0 1
  6  -3.124680  -0.440685   0.273036 
  6  -0.775792  -0.261985  -1.302176 
  1  -4.054066  -0.525819   0.824190 
  1   0.161604  -0.184531  -1.839436 
  6   1.198536   1.432924   0.834184 
  6   0.775792   0.261985   1.302176 
  1   0.608196   2.330179   0.977711 
  1  -0.161604   0.184531   1.839436 
  6   1.605227  -0.981794   1.161635 
  1   2.176937  -1.108268   2.090145 
  1   0.956297  -1.855279   1.083849 
  6   2.471867   1.533139   0.119408 
  1   2.871405   2.516926  -0.096077 
  6   3.124680   0.440685  -0.273036 
  1   4.054066   0.525819  -0.824190 
  6   2.563488  -0.934271  -0.032474 
  1   2.043317  -1.256129  -0.942998 
  1   3.372415  -1.652191   0.115362 
  6  -1.198536  -1.432924  -0.834184 
  1  -0.608196  -2.330179  -0.977711 
  6  -2.471867  -1.533139  -0.119408 
  1  -2.871405  -2.516926   0.096077 
  6  -1.605227   0.981794  -1.161635 
  1  -0.956297   1.855279  -1.083849 
  1  -2.176937   1.108268  -2.090145 
  6  -2.563488   0.934271   0.032474 
  1  -3.372415   1.652191  -0.115362 
  1  -2.043317   1.256129   0.942998 

norep  pcmdoc geomview  nodis cav g03defaults noaddsph  tsare=0.075 
nsfe=28
Vmol=89.84123994485 Rsolv=2.815 

    1     2.040000     1.000000
    2     2.040000     1.000000
    3     1.440000     1.000000
    4     1.440000     1.000000
    5     2.040000     1.000000
    6     2.040000     1.000000
    7     1.440000     1.000000
    8     1.440000     1.000000
    9     2.040000     1.000000
   10     1.440000     1.000000
   11     1.440000     1.000000
   12     2.040000     1.000000
   13     1.440000     1.000000
   14     2.040000     1.000000
   15     1.440000     1.000000
   16     2.040000     1.000000
   17     1.440000     1.000000
   18     1.440000     1.000000
   19     2.040000     1.000000
   20     1.440000     1.000000
   21     2.040000     1.000000
   22     1.440000     1.000000
   23     2.040000     1.000000
   24     1.440000     1.000000
   25     1.440000     1.000000
   26     2.040000     1.000000
   27     1.440000     1.000000
   28     1.440000     1.000000

--link1--
%chk=scr.chk
%nproc=24
%mem=48GB
#p uwb97xd guess=mix def2tzvp 
# scrf=(iefpcm,solvent=Cyclohexane,read) nosym guess=only pop=none 

endo-2
xp-pcm with Vmol=84.2615311719887 cm^3/mol 

0 1
  6  -3.124680  -0.440685   0.273036 
  6  -0.775792  -0.261985  -1.302176 
  1  -4.054066  -0.525819   0.824190 
  1   0.161604  -0.184531  -1.839436 
  6   1.198536   1.432924   0.834184 
  6   0.775792   0.261985   1.302176 
  1   0.608196   2.330179   0.977711 
  1  -0.161604   0.184531   1.839436 
  6   1.605227  -0.981794   1.161635 
  1   2.176937  -1.108268   2.090145 
  1   0.956297  -1.855279   1.083849 
  6   2.471867   1.533139   0.119408 
  1   2.871405   2.516926  -0.096077 
  6   3.124680   0.440685  -0.273036 
  1   4.054066   0.525819  -0.824190 
  6   2.563488  -0.934271  -0.032474 
  1   2.043317  -1.256129  -0.942998 
  1   3.372415  -1.652191   0.115362 
  6  -1.198536  -1.432924  -0.834184 
  1  -0.608196  -2.330179  -0.977711 
  6  -2.471867  -1.533139  -0.119408 
  1  -2.871405  -2.516926   0.096077 
  6  -1.605227   0.981794  -1.161635 
  1  -0.956297   1.855279  -1.083849 
  1  -2.176937   1.108268  -2.090145 
  6  -2.563488   0.934271   0.032474 
  1  -3.372415   1.652191  -0.115362 
  1  -2.043317   1.256129   0.942998 

norep  pcmdoc geomview  nodis cav g03defaults noaddsph  tsare=0.075 
nsfe=28
Vmol=84.2615311719887 Rsolv=2.815 

    1     2.040000     1.000000
    2     2.040000     1.000000
    3     1.440000     1.000000
    4     1.440000     1.000000
    5     2.040000     1.000000
    6     2.040000     1.000000
    7     1.440000     1.000000
    8     1.440000     1.000000
    9     2.040000     1.000000
   10     1.440000     1.000000
   11     1.440000     1.000000
   12     2.040000     1.000000
   13     1.440000     1.000000
   14     2.040000     1.000000
   15     1.440000     1.000000
   16     2.040000     1.000000
   17     1.440000     1.000000
   18     1.440000     1.000000
   19     2.040000     1.000000
   20     1.440000     1.000000
   21     2.040000     1.000000
   22     1.440000     1.000000
   23     2.040000     1.000000
   24     1.440000     1.000000
   25     1.440000     1.000000
   26     2.040000     1.000000
   27     1.440000     1.000000
   28     1.440000     1.000000

--link1--
%chk=scr.chk
%nproc=24
%mem=48GB
#p uwb97xd guess=mix def2tzvp 
# scrf=(iefpcm,solvent=Cyclohexane,read) nosym guess=only pop=none 

endo-2
xp-pcm with Vmol=81.5946296547421 cm^3/mol 

0 1
  6  -3.124680  -0.440685   0.273036 
  6  -0.775792  -0.261985  -1.302176 
  1  -4.054066  -0.525819   0.824190 
  1   0.161604  -0.184531  -1.839436 
  6   1.198536   1.432924   0.834184 
  6   0.775792   0.261985   1.302176 
  1   0.608196   2.330179   0.977711 
  1  -0.161604   0.184531   1.839436 
  6   1.605227  -0.981794   1.161635 
  1   2.176937  -1.108268   2.090145 
  1   0.956297  -1.855279   1.083849 
  6   2.471867   1.533139   0.119408 
  1   2.871405   2.516926  -0.096077 
  6   3.124680   0.440685  -0.273036 
  1   4.054066   0.525819  -0.824190 
  6   2.563488  -0.934271  -0.032474 
  1   2.043317  -1.256129  -0.942998 
  1   3.372415  -1.652191   0.115362 
  6  -1.198536  -1.432924  -0.834184 
  1  -0.608196  -2.330179  -0.977711 
  6  -2.471867  -1.533139  -0.119408 
  1  -2.871405  -2.516926   0.096077 
  6  -1.605227   0.981794  -1.161635 
  1  -0.956297   1.855279  -1.083849 
  1  -2.176937   1.108268  -2.090145 
  6  -2.563488   0.934271   0.032474 
  1  -3.372415   1.652191  -0.115362 
  1  -2.043317   1.256129   0.942998 

norep  pcmdoc geomview  nodis cav g03defaults noaddsph  tsare=0.075 
nsfe=28
Vmol=81.5946296547421 Rsolv=2.815 

    1     2.040000     1.000000
    2     2.040000     1.000000
    3     1.440000     1.000000
    4     1.440000     1.000000
    5     2.040000     1.000000
    6     2.040000     1.000000
    7     1.440000     1.000000
    8     1.440000     1.000000
    9     2.040000     1.000000
   10     1.440000     1.000000
   11     1.440000     1.000000
   12     2.040000     1.000000
   13     1.440000     1.000000
   14     2.040000     1.000000
   15     1.440000     1.000000
   16     2.040000     1.000000
   17     1.440000     1.000000
   18     1.440000     1.000000
   19     2.040000     1.000000
   20     1.440000     1.000000
   21     2.040000     1.000000
   22     1.440000     1.000000
   23     2.040000     1.000000
   24     1.440000     1.000000
   25     1.440000     1.000000
   26     2.040000     1.000000
   27     1.440000     1.000000
   28     1.440000     1.000000

--link1--
%chk=scr.chk
%nproc=24
%mem=48GB
#p uwb97xd guess=mix def2tzvp 
# scrf=(iefpcm,solvent=Cyclohexane,read) nosym guess=only pop=none 

endo-2
xp-pcm with Vmol=78.9041178242053 cm^3/mol 

0 1
  6  -3.124680  -0.440685   0.273036 
  6  -0.775792  -0.261985  -1.302176 
  1  -4.054066  -0.525819   0.824190 
  1   0.161604  -0.184531  -1.839436 
  6   1.198536   1.432924   0.834184 
  6   0.775792   0.261985   1.302176 
  1   0.608196   2.330179   0.977711 
  1  -0.161604   0.184531   1.839436 
  6   1.605227  -0.981794   1.161635 
  1   2.176937  -1.108268   2.090145 
  1   0.956297  -1.855279   1.083849 
  6   2.471867   1.533139   0.119408 
  1   2.871405   2.516926  -0.096077 
  6   3.124680   0.440685  -0.273036 
  1   4.054066   0.525819  -0.824190 
  6   2.563488  -0.934271  -0.032474 
  1   2.043317  -1.256129  -0.942998 
  1   3.372415  -1.652191   0.115362 
  6  -1.198536  -1.432924  -0.834184 
  1  -0.608196  -2.330179  -0.977711 
  6  -2.471867  -1.533139  -0.119408 
  1  -2.871405  -2.516926   0.096077 
  6  -1.605227   0.981794  -1.161635 
  1  -0.956297   1.855279  -1.083849 
  1  -2.176937   1.108268  -2.090145 
  6  -2.563488   0.934271   0.032474 
  1  -3.372415   1.652191  -0.115362 
  1  -2.043317   1.256129   0.942998 

norep  pcmdoc geomview  nodis cav g03defaults noaddsph  tsare=0.075 
nsfe=28
Vmol=78.9041178242053 Rsolv=2.815 

    1     2.040000     1.000000
    2     2.040000     1.000000
    3     1.440000     1.000000
    4     1.440000     1.000000
    5     2.040000     1.000000
    6     2.040000     1.000000
    7     1.440000     1.000000
    8     1.440000     1.000000
    9     2.040000     1.000000
   10     1.440000     1.000000
   11     1.440000     1.000000
   12     2.040000     1.000000
   13     1.440000     1.000000
   14     2.040000     1.000000
   15     1.440000     1.000000
   16     2.040000     1.000000
   17     1.440000     1.000000
   18     1.440000     1.000000
   19     2.040000     1.000000
   20     1.440000     1.000000
   21     2.040000     1.000000
   22     1.440000     1.000000
   23     2.040000     1.000000
   24     1.440000     1.000000
   25     1.440000     1.000000
   26     2.040000     1.000000
   27     1.440000     1.000000
   28     1.440000     1.000000

