%nproc=24
%mem=48GB
#p uwb97xd guess=mix def2tzvp 

endo-2

0 1
  6  -3.119691  -0.425826   0.248428 
  6  -0.438059  -0.127566  -0.740444 
  1  -4.086791  -0.546863   0.720948 
  1   0.329828  -0.109733  -1.515278 
  6   1.116208   1.432588   0.668787 
  6   0.438059   0.127566   0.740444 
  1   0.567375   2.333262   0.913532 
  1  -0.329828   0.109733   1.515278 
  6   1.453963  -0.997822   0.978822 
  1   1.872621  -0.887919   1.983401 
  1   0.950096  -1.965338   0.950002 
  6   2.395835   1.529761   0.125114 
  1   2.827943   2.513325  -0.022973 
  6   3.119691   0.425826  -0.248428 
  1   4.086791   0.546863  -0.720948 
  6   2.592903  -0.959744  -0.042391 
  1   2.246941  -1.360164  -1.004660 
  1   3.401404  -1.625003   0.272285 
  6  -1.116208  -1.432588  -0.668787 
  1  -0.567375  -2.333262  -0.913532 
  6  -2.395835  -1.529761  -0.125114 
  1  -2.827943  -2.513325   0.022973 
  6  -1.453963   0.997822  -0.978822 
  1  -0.950096   1.965338  -0.950002 
  1  -1.872621   0.887919  -1.983401 
  6  -2.592903   0.959744   0.042391 
  1  -3.401404   1.625003  -0.272284 
  1  -2.246941   1.360164   1.004660 

