%nproc=24
%mem=48GB
#p uwb97xd guess=mix def2tzvp 

endo-2

0 1
  6  -3.127657  -0.441509   0.262651 
  6  -0.727486  -0.249944  -1.231117 
  1  -4.071374  -0.533963   0.787699 
  1   0.224412  -0.167263  -1.740777 
  6   1.165225   1.425236   0.789447 
  6   0.727486   0.249944   1.231117 
  1   0.572293   2.321767   0.925334 
  1  -0.224412   0.167263   1.740777 
  6   1.561260  -0.992849   1.111957 
  1   2.090658  -1.124787   2.064248 
  1   0.917395  -1.865916   1.002780 
  6   2.456048   1.529882   0.109003 
  1   2.855820   2.515414  -0.097973 
  6   3.127657   0.441509  -0.262651 
  1   4.071374   0.533963  -0.787699 
  6   2.575888  -0.939641  -0.035506 
  1   2.111379  -1.281690  -0.968555 
  1   3.388662  -1.641439   0.161287 
  6  -1.165225  -1.425236  -0.789447 
  1  -0.572293  -2.321767  -0.925334 
  6  -2.456048  -1.529882  -0.109003 
  1  -2.855820  -2.515414   0.097973 
  6  -1.561260   0.992849  -1.111957 
  1  -0.917395   1.865916  -1.002780 
  1  -2.090658   1.124787  -2.064248 
  6  -2.575888   0.939641   0.035506 
  1  -3.388662   1.641439  -0.161287 
  1  -2.111379   1.281690   0.968555 

