%chk=meso-TS_37_2_xp-12.chk
%nproc=24
%mem=48GB
#p uwb97xd guess=mix def2tzvp 
# scrf=(iefpcm,solvent=Cyclohexane,read) nosym guess=only pop=none 

endo-2
xp-pcm for eta=3

0 1
  6  -3.126220  -0.440488   0.253489 
  6  -0.672219  -0.236821  -1.146356 
  1  -4.082957  -0.541745   0.752734 
  1   0.294206  -0.146815  -1.625125 
  6   1.129787   1.418428   0.743520 
  6   0.672219   0.236821   1.146356 
  1   0.536815   2.315578   0.872168 
  1  -0.294206   0.146815   1.625125 
  6   1.518650  -0.999998   1.059609 
  1   2.012318  -1.114204   2.032991 
  1   0.891136  -1.882004   0.937960 
  6   2.439953   1.524706   0.104897 
  1   2.843940   2.511426  -0.087900 
  6   3.126220   0.440488  -0.253489 
  1   4.082957   0.541745  -0.752734 
  6   2.584411  -0.946808  -0.040911 
  1   2.177912  -1.311853  -0.992206 
  1   3.397883  -1.630946   0.208832 
  6  -1.129787  -1.418428  -0.743520 
  1  -0.536815  -2.315578  -0.872168 
  6  -2.439953  -1.524706  -0.104897 
  1  -2.843940  -2.511426   0.087900 
  6  -1.518650   0.999998  -1.059609 
  1  -0.891135   1.882004  -0.937960 
  1  -2.012317   1.114205  -2.032991 
  6  -2.584411   0.946808   0.040911 
  1  -3.397883   1.630946  -0.208832 
  1  -2.177912   1.311853   0.992206 

qrep pcmdoc geomview  nodis nocav g03defaults tsare=0.075 
nsfe=28
NVESolv=36  SolvMW=84.1595   Rsolv=2.815 
eps=2.0165 RhoS=0.7781

   -3.126220    -0.440488     0.253489     1.700000     1.200000
   -0.672219    -0.236821    -1.146356     1.700000     1.200000
   -4.082957    -0.541745     0.752734     1.200000     1.200000
    0.294206    -0.146815    -1.625125     1.200000     1.200000
    1.129787     1.418428     0.743520     1.700000     1.200000
    0.672219     0.236821     1.146356     1.700000     1.200000
    0.536815     2.315578     0.872168     1.200000     1.200000
   -0.294206     0.146815     1.625125     1.200000     1.200000
    1.518650    -0.999998     1.059609     1.700000     1.200000
    2.012318    -1.114204     2.032991     1.200000     1.200000
    0.891136    -1.882004     0.937960     1.200000     1.200000
    2.439953     1.524706     0.104897     1.700000     1.200000
    2.843940     2.511426    -0.087900     1.200000     1.200000
    3.126220     0.440488    -0.253489     1.700000     1.200000
    4.082957     0.541745    -0.752734     1.200000     1.200000
    2.584411    -0.946808    -0.040911     1.700000     1.200000
    2.177912    -1.311853    -0.992206     1.200000     1.200000
    3.397883    -1.630946     0.208832     1.200000     1.200000
   -1.129787    -1.418428    -0.743520     1.700000     1.200000
   -0.536815    -2.315578    -0.872168     1.200000     1.200000
   -2.439953    -1.524706    -0.104897     1.700000     1.200000
   -2.843940    -2.511426     0.087900     1.200000     1.200000
   -1.518650     0.999998    -1.059609     1.700000     1.200000
   -0.891135     1.882004    -0.937960     1.200000     1.200000
   -2.012317     1.114205    -2.032991     1.200000     1.200000
   -2.584411     0.946808     0.040911     1.700000     1.200000
   -3.397883     1.630946    -0.208832     1.200000     1.200000
   -2.177912     1.311853     0.992206     1.200000     1.200000

--link1--
%chk=meso-TS_37_2_xp-115.chk
%nproc=24
%mem=48GB
#p uwb97xd guess=mix def2tzvp 
# scrf=(iefpcm,solvent=Cyclohexane,read) nosym guess=only pop=none 

endo-2
xp-pcm for eta=3

0 1
  6  -3.126220  -0.440488   0.253489 
  6  -0.672219  -0.236821  -1.146356 
  1  -4.082957  -0.541745   0.752734 
  1   0.294206  -0.146815  -1.625125 
  6   1.129787   1.418428   0.743520 
  6   0.672219   0.236821   1.146356 
  1   0.536815   2.315578   0.872168 
  1  -0.294206   0.146815   1.625125 
  6   1.518650  -0.999998   1.059609 
  1   2.012318  -1.114204   2.032991 
  1   0.891136  -1.882004   0.937960 
  6   2.439953   1.524706   0.104897 
  1   2.843940   2.511426  -0.087900 
  6   3.126220   0.440488  -0.253489 
  1   4.082957   0.541745  -0.752734 
  6   2.584411  -0.946808  -0.040911 
  1   2.177912  -1.311853  -0.992206 
  1   3.397883  -1.630946   0.208832 
  6  -1.129787  -1.418428  -0.743520 
  1  -0.536815  -2.315578  -0.872168 
  6  -2.439953  -1.524706  -0.104897 
  1  -2.843940  -2.511426   0.087900 
  6  -1.518650   0.999998  -1.059609 
  1  -0.891135   1.882004  -0.937960 
  1  -2.012317   1.114205  -2.032991 
  6  -2.584411   0.946808   0.040911 
  1  -3.397883   1.630946  -0.208832 
  1  -2.177912   1.311853   0.992206 

qrep pcmdoc geomview  nodis nocav g03defaults tsare=0.075 
nsfe=28
NVESolv=36  SolvMW=84.1595   Rsolv=2.815 
eps=2.0165 RhoS=0.7781

   -3.126220    -0.440488     0.253489     1.700000     1.150000
   -0.672219    -0.236821    -1.146356     1.700000     1.150000
   -4.082957    -0.541745     0.752734     1.200000     1.150000
    0.294206    -0.146815    -1.625125     1.200000     1.150000
    1.129787     1.418428     0.743520     1.700000     1.150000
    0.672219     0.236821     1.146356     1.700000     1.150000
    0.536815     2.315578     0.872168     1.200000     1.150000
   -0.294206     0.146815     1.625125     1.200000     1.150000
    1.518650    -0.999998     1.059609     1.700000     1.150000
    2.012318    -1.114204     2.032991     1.200000     1.150000
    0.891136    -1.882004     0.937960     1.200000     1.150000
    2.439953     1.524706     0.104897     1.700000     1.150000
    2.843940     2.511426    -0.087900     1.200000     1.150000
    3.126220     0.440488    -0.253489     1.700000     1.150000
    4.082957     0.541745    -0.752734     1.200000     1.150000
    2.584411    -0.946808    -0.040911     1.700000     1.150000
    2.177912    -1.311853    -0.992206     1.200000     1.150000
    3.397883    -1.630946     0.208832     1.200000     1.150000
   -1.129787    -1.418428    -0.743520     1.700000     1.150000
   -0.536815    -2.315578    -0.872168     1.200000     1.150000
   -2.439953    -1.524706    -0.104897     1.700000     1.150000
   -2.843940    -2.511426     0.087900     1.200000     1.150000
   -1.518650     0.999998    -1.059609     1.700000     1.150000
   -0.891135     1.882004    -0.937960     1.200000     1.150000
   -2.012317     1.114205    -2.032991     1.200000     1.150000
   -2.584411     0.946808     0.040911     1.700000     1.150000
   -3.397883     1.630946    -0.208832     1.200000     1.150000
   -2.177912     1.311853     0.992206     1.200000     1.150000

--link1--
%chk=meso-TS_37_2_xp-110.chk
%nproc=24
%mem=48GB
#p uwb97xd guess=mix def2tzvp 
# scrf=(iefpcm,solvent=Cyclohexane,read) nosym guess=only pop=none 

endo-2
xp-pcm for eta=3

0 1
  6  -3.126220  -0.440488   0.253489 
  6  -0.672219  -0.236821  -1.146356 
  1  -4.082957  -0.541745   0.752734 
  1   0.294206  -0.146815  -1.625125 
  6   1.129787   1.418428   0.743520 
  6   0.672219   0.236821   1.146356 
  1   0.536815   2.315578   0.872168 
  1  -0.294206   0.146815   1.625125 
  6   1.518650  -0.999998   1.059609 
  1   2.012318  -1.114204   2.032991 
  1   0.891136  -1.882004   0.937960 
  6   2.439953   1.524706   0.104897 
  1   2.843940   2.511426  -0.087900 
  6   3.126220   0.440488  -0.253489 
  1   4.082957   0.541745  -0.752734 
  6   2.584411  -0.946808  -0.040911 
  1   2.177912  -1.311853  -0.992206 
  1   3.397883  -1.630946   0.208832 
  6  -1.129787  -1.418428  -0.743520 
  1  -0.536815  -2.315578  -0.872168 
  6  -2.439953  -1.524706  -0.104897 
  1  -2.843940  -2.511426   0.087900 
  6  -1.518650   0.999998  -1.059609 
  1  -0.891135   1.882004  -0.937960 
  1  -2.012317   1.114205  -2.032991 
  6  -2.584411   0.946808   0.040911 
  1  -3.397883   1.630946  -0.208832 
  1  -2.177912   1.311853   0.992206 

qrep pcmdoc geomview  nodis nocav g03defaults tsare=0.075 
nsfe=28
NVESolv=36  SolvMW=84.1595   Rsolv=2.815 
eps=2.0165 RhoS=0.7781

   -3.126220    -0.440488     0.253489     1.700000     1.100000
   -0.672219    -0.236821    -1.146356     1.700000     1.100000
   -4.082957    -0.541745     0.752734     1.200000     1.100000
    0.294206    -0.146815    -1.625125     1.200000     1.100000
    1.129787     1.418428     0.743520     1.700000     1.100000
    0.672219     0.236821     1.146356     1.700000     1.100000
    0.536815     2.315578     0.872168     1.200000     1.100000
   -0.294206     0.146815     1.625125     1.200000     1.100000
    1.518650    -0.999998     1.059609     1.700000     1.100000
    2.012318    -1.114204     2.032991     1.200000     1.100000
    0.891136    -1.882004     0.937960     1.200000     1.100000
    2.439953     1.524706     0.104897     1.700000     1.100000
    2.843940     2.511426    -0.087900     1.200000     1.100000
    3.126220     0.440488    -0.253489     1.700000     1.100000
    4.082957     0.541745    -0.752734     1.200000     1.100000
    2.584411    -0.946808    -0.040911     1.700000     1.100000
    2.177912    -1.311853    -0.992206     1.200000     1.100000
    3.397883    -1.630946     0.208832     1.200000     1.100000
   -1.129787    -1.418428    -0.743520     1.700000     1.100000
   -0.536815    -2.315578    -0.872168     1.200000     1.100000
   -2.439953    -1.524706    -0.104897     1.700000     1.100000
   -2.843940    -2.511426     0.087900     1.200000     1.100000
   -1.518650     0.999998    -1.059609     1.700000     1.100000
   -0.891135     1.882004    -0.937960     1.200000     1.100000
   -2.012317     1.114205    -2.032991     1.200000     1.100000
   -2.584411     0.946808     0.040911     1.700000     1.100000
   -3.397883     1.630946    -0.208832     1.200000     1.100000
   -2.177912     1.311853     0.992206     1.200000     1.100000

--link1--
%chk=meso-TS_37_2_xp-105.chk
%nproc=24
%mem=48GB
#p uwb97xd guess=mix def2tzvp 
# scrf=(iefpcm,solvent=Cyclohexane,read) nosym guess=only pop=none 

endo-2
xp-pcm for eta=3

0 1
  6  -3.126220  -0.440488   0.253489 
  6  -0.672219  -0.236821  -1.146356 
  1  -4.082957  -0.541745   0.752734 
  1   0.294206  -0.146815  -1.625125 
  6   1.129787   1.418428   0.743520 
  6   0.672219   0.236821   1.146356 
  1   0.536815   2.315578   0.872168 
  1  -0.294206   0.146815   1.625125 
  6   1.518650  -0.999998   1.059609 
  1   2.012318  -1.114204   2.032991 
  1   0.891136  -1.882004   0.937960 
  6   2.439953   1.524706   0.104897 
  1   2.843940   2.511426  -0.087900 
  6   3.126220   0.440488  -0.253489 
  1   4.082957   0.541745  -0.752734 
  6   2.584411  -0.946808  -0.040911 
  1   2.177912  -1.311853  -0.992206 
  1   3.397883  -1.630946   0.208832 
  6  -1.129787  -1.418428  -0.743520 
  1  -0.536815  -2.315578  -0.872168 
  6  -2.439953  -1.524706  -0.104897 
  1  -2.843940  -2.511426   0.087900 
  6  -1.518650   0.999998  -1.059609 
  1  -0.891135   1.882004  -0.937960 
  1  -2.012317   1.114205  -2.032991 
  6  -2.584411   0.946808   0.040911 
  1  -3.397883   1.630946  -0.208832 
  1  -2.177912   1.311853   0.992206 

qrep pcmdoc geomview  nodis nocav g03defaults tsare=0.075 
nsfe=28
NVESolv=36  SolvMW=84.1595   Rsolv=2.815 
eps=2.0165 RhoS=0.7781

   -3.126220    -0.440488     0.253489     1.700000     1.050000
   -0.672219    -0.236821    -1.146356     1.700000     1.050000
   -4.082957    -0.541745     0.752734     1.200000     1.050000
    0.294206    -0.146815    -1.625125     1.200000     1.050000
    1.129787     1.418428     0.743520     1.700000     1.050000
    0.672219     0.236821     1.146356     1.700000     1.050000
    0.536815     2.315578     0.872168     1.200000     1.050000
   -0.294206     0.146815     1.625125     1.200000     1.050000
    1.518650    -0.999998     1.059609     1.700000     1.050000
    2.012318    -1.114204     2.032991     1.200000     1.050000
    0.891136    -1.882004     0.937960     1.200000     1.050000
    2.439953     1.524706     0.104897     1.700000     1.050000
    2.843940     2.511426    -0.087900     1.200000     1.050000
    3.126220     0.440488    -0.253489     1.700000     1.050000
    4.082957     0.541745    -0.752734     1.200000     1.050000
    2.584411    -0.946808    -0.040911     1.700000     1.050000
    2.177912    -1.311853    -0.992206     1.200000     1.050000
    3.397883    -1.630946     0.208832     1.200000     1.050000
   -1.129787    -1.418428    -0.743520     1.700000     1.050000
   -0.536815    -2.315578    -0.872168     1.200000     1.050000
   -2.439953    -1.524706    -0.104897     1.700000     1.050000
   -2.843940    -2.511426     0.087900     1.200000     1.050000
   -1.518650     0.999998    -1.059609     1.700000     1.050000
   -0.891135     1.882004    -0.937960     1.200000     1.050000
   -2.012317     1.114205    -2.032991     1.200000     1.050000
   -2.584411     0.946808     0.040911     1.700000     1.050000
   -3.397883     1.630946    -0.208832     1.200000     1.050000
   -2.177912     1.311853     0.992206     1.200000     1.050000

--link1--
%chk=meso-TS_37_2_xp-100.chk
%nproc=24
%mem=48GB
#p uwb97xd guess=mix def2tzvp 
# scrf=(iefpcm,solvent=Cyclohexane,read) nosym guess=only pop=none 

endo-2
xp-pcm for eta=3

0 1
  6  -3.126220  -0.440488   0.253489 
  6  -0.672219  -0.236821  -1.146356 
  1  -4.082957  -0.541745   0.752734 
  1   0.294206  -0.146815  -1.625125 
  6   1.129787   1.418428   0.743520 
  6   0.672219   0.236821   1.146356 
  1   0.536815   2.315578   0.872168 
  1  -0.294206   0.146815   1.625125 
  6   1.518650  -0.999998   1.059609 
  1   2.012318  -1.114204   2.032991 
  1   0.891136  -1.882004   0.937960 
  6   2.439953   1.524706   0.104897 
  1   2.843940   2.511426  -0.087900 
  6   3.126220   0.440488  -0.253489 
  1   4.082957   0.541745  -0.752734 
  6   2.584411  -0.946808  -0.040911 
  1   2.177912  -1.311853  -0.992206 
  1   3.397883  -1.630946   0.208832 
  6  -1.129787  -1.418428  -0.743520 
  1  -0.536815  -2.315578  -0.872168 
  6  -2.439953  -1.524706  -0.104897 
  1  -2.843940  -2.511426   0.087900 
  6  -1.518650   0.999998  -1.059609 
  1  -0.891135   1.882004  -0.937960 
  1  -2.012317   1.114205  -2.032991 
  6  -2.584411   0.946808   0.040911 
  1  -3.397883   1.630946  -0.208832 
  1  -2.177912   1.311853   0.992206 

qrep pcmdoc geomview  nodis nocav g03defaults tsare=0.075 
nsfe=28
NVESolv=36  SolvMW=84.1595   Rsolv=2.815 
eps=2.0165 RhoS=0.7781

   -3.126220    -0.440488     0.253489     1.700000     1.000000
   -0.672219    -0.236821    -1.146356     1.700000     1.000000
   -4.082957    -0.541745     0.752734     1.200000     1.000000
    0.294206    -0.146815    -1.625125     1.200000     1.000000
    1.129787     1.418428     0.743520     1.700000     1.000000
    0.672219     0.236821     1.146356     1.700000     1.000000
    0.536815     2.315578     0.872168     1.200000     1.000000
   -0.294206     0.146815     1.625125     1.200000     1.000000
    1.518650    -0.999998     1.059609     1.700000     1.000000
    2.012318    -1.114204     2.032991     1.200000     1.000000
    0.891136    -1.882004     0.937960     1.200000     1.000000
    2.439953     1.524706     0.104897     1.700000     1.000000
    2.843940     2.511426    -0.087900     1.200000     1.000000
    3.126220     0.440488    -0.253489     1.700000     1.000000
    4.082957     0.541745    -0.752734     1.200000     1.000000
    2.584411    -0.946808    -0.040911     1.700000     1.000000
    2.177912    -1.311853    -0.992206     1.200000     1.000000
    3.397883    -1.630946     0.208832     1.200000     1.000000
   -1.129787    -1.418428    -0.743520     1.700000     1.000000
   -0.536815    -2.315578    -0.872168     1.200000     1.000000
   -2.439953    -1.524706    -0.104897     1.700000     1.000000
   -2.843940    -2.511426     0.087900     1.200000     1.000000
   -1.518650     0.999998    -1.059609     1.700000     1.000000
   -0.891135     1.882004    -0.937960     1.200000     1.000000
   -2.012317     1.114205    -2.032991     1.200000     1.000000
   -2.584411     0.946808     0.040911     1.700000     1.000000
   -3.397883     1.630946    -0.208832     1.200000     1.000000
   -2.177912     1.311853     0.992206     1.200000     1.000000

--link1--
%chk=meso-TS_37_2_xp-0975.chk
%nproc=24
%mem=48GB
#p uwb97xd guess=mix def2tzvp 
# scrf=(iefpcm,solvent=Cyclohexane,read) nosym guess=only pop=none 

endo-2
xp-pcm for eta=3

0 1
  6  -3.126220  -0.440488   0.253489 
  6  -0.672219  -0.236821  -1.146356 
  1  -4.082957  -0.541745   0.752734 
  1   0.294206  -0.146815  -1.625125 
  6   1.129787   1.418428   0.743520 
  6   0.672219   0.236821   1.146356 
  1   0.536815   2.315578   0.872168 
  1  -0.294206   0.146815   1.625125 
  6   1.518650  -0.999998   1.059609 
  1   2.012318  -1.114204   2.032991 
  1   0.891136  -1.882004   0.937960 
  6   2.439953   1.524706   0.104897 
  1   2.843940   2.511426  -0.087900 
  6   3.126220   0.440488  -0.253489 
  1   4.082957   0.541745  -0.752734 
  6   2.584411  -0.946808  -0.040911 
  1   2.177912  -1.311853  -0.992206 
  1   3.397883  -1.630946   0.208832 
  6  -1.129787  -1.418428  -0.743520 
  1  -0.536815  -2.315578  -0.872168 
  6  -2.439953  -1.524706  -0.104897 
  1  -2.843940  -2.511426   0.087900 
  6  -1.518650   0.999998  -1.059609 
  1  -0.891135   1.882004  -0.937960 
  1  -2.012317   1.114205  -2.032991 
  6  -2.584411   0.946808   0.040911 
  1  -3.397883   1.630946  -0.208832 
  1  -2.177912   1.311853   0.992206 

qrep pcmdoc geomview  nodis nocav g03defaults tsare=0.075 
nsfe=28
NVESolv=36  SolvMW=84.1595   Rsolv=2.815 
eps=2.0165 RhoS=0.7781

   -3.126220    -0.440488     0.253489     1.700000     0.975000
   -0.672219    -0.236821    -1.146356     1.700000     0.975000
   -4.082957    -0.541745     0.752734     1.200000     0.975000
    0.294206    -0.146815    -1.625125     1.200000     0.975000
    1.129787     1.418428     0.743520     1.700000     0.975000
    0.672219     0.236821     1.146356     1.700000     0.975000
    0.536815     2.315578     0.872168     1.200000     0.975000
   -0.294206     0.146815     1.625125     1.200000     0.975000
    1.518650    -0.999998     1.059609     1.700000     0.975000
    2.012318    -1.114204     2.032991     1.200000     0.975000
    0.891136    -1.882004     0.937960     1.200000     0.975000
    2.439953     1.524706     0.104897     1.700000     0.975000
    2.843940     2.511426    -0.087900     1.200000     0.975000
    3.126220     0.440488    -0.253489     1.700000     0.975000
    4.082957     0.541745    -0.752734     1.200000     0.975000
    2.584411    -0.946808    -0.040911     1.700000     0.975000
    2.177912    -1.311853    -0.992206     1.200000     0.975000
    3.397883    -1.630946     0.208832     1.200000     0.975000
   -1.129787    -1.418428    -0.743520     1.700000     0.975000
   -0.536815    -2.315578    -0.872168     1.200000     0.975000
   -2.439953    -1.524706    -0.104897     1.700000     0.975000
   -2.843940    -2.511426     0.087900     1.200000     0.975000
   -1.518650     0.999998    -1.059609     1.700000     0.975000
   -0.891135     1.882004    -0.937960     1.200000     0.975000
   -2.012317     1.114205    -2.032991     1.200000     0.975000
   -2.584411     0.946808     0.040911     1.700000     0.975000
   -3.397883     1.630946    -0.208832     1.200000     0.975000
   -2.177912     1.311853     0.992206     1.200000     0.975000

--link1--
%chk=meso-TS_37_2_xp-095.chk
%nproc=24
%mem=48GB
#p uwb97xd guess=mix def2tzvp 
# scrf=(iefpcm,solvent=Cyclohexane,read) nosym guess=only pop=none 

endo-2
xp-pcm for eta=3

0 1
  6  -3.126220  -0.440488   0.253489 
  6  -0.672219  -0.236821  -1.146356 
  1  -4.082957  -0.541745   0.752734 
  1   0.294206  -0.146815  -1.625125 
  6   1.129787   1.418428   0.743520 
  6   0.672219   0.236821   1.146356 
  1   0.536815   2.315578   0.872168 
  1  -0.294206   0.146815   1.625125 
  6   1.518650  -0.999998   1.059609 
  1   2.012318  -1.114204   2.032991 
  1   0.891136  -1.882004   0.937960 
  6   2.439953   1.524706   0.104897 
  1   2.843940   2.511426  -0.087900 
  6   3.126220   0.440488  -0.253489 
  1   4.082957   0.541745  -0.752734 
  6   2.584411  -0.946808  -0.040911 
  1   2.177912  -1.311853  -0.992206 
  1   3.397883  -1.630946   0.208832 
  6  -1.129787  -1.418428  -0.743520 
  1  -0.536815  -2.315578  -0.872168 
  6  -2.439953  -1.524706  -0.104897 
  1  -2.843940  -2.511426   0.087900 
  6  -1.518650   0.999998  -1.059609 
  1  -0.891135   1.882004  -0.937960 
  1  -2.012317   1.114205  -2.032991 
  6  -2.584411   0.946808   0.040911 
  1  -3.397883   1.630946  -0.208832 
  1  -2.177912   1.311853   0.992206 

qrep pcmdoc geomview  nodis nocav g03defaults tsare=0.075 
nsfe=28
NVESolv=36  SolvMW=84.1595   Rsolv=2.815 
eps=2.0165 RhoS=0.7781

   -3.126220    -0.440488     0.253489     1.700000     0.950000
   -0.672219    -0.236821    -1.146356     1.700000     0.950000
   -4.082957    -0.541745     0.752734     1.200000     0.950000
    0.294206    -0.146815    -1.625125     1.200000     0.950000
    1.129787     1.418428     0.743520     1.700000     0.950000
    0.672219     0.236821     1.146356     1.700000     0.950000
    0.536815     2.315578     0.872168     1.200000     0.950000
   -0.294206     0.146815     1.625125     1.200000     0.950000
    1.518650    -0.999998     1.059609     1.700000     0.950000
    2.012318    -1.114204     2.032991     1.200000     0.950000
    0.891136    -1.882004     0.937960     1.200000     0.950000
    2.439953     1.524706     0.104897     1.700000     0.950000
    2.843940     2.511426    -0.087900     1.200000     0.950000
    3.126220     0.440488    -0.253489     1.700000     0.950000
    4.082957     0.541745    -0.752734     1.200000     0.950000
    2.584411    -0.946808    -0.040911     1.700000     0.950000
    2.177912    -1.311853    -0.992206     1.200000     0.950000
    3.397883    -1.630946     0.208832     1.200000     0.950000
   -1.129787    -1.418428    -0.743520     1.700000     0.950000
   -0.536815    -2.315578    -0.872168     1.200000     0.950000
   -2.439953    -1.524706    -0.104897     1.700000     0.950000
   -2.843940    -2.511426     0.087900     1.200000     0.950000
   -1.518650     0.999998    -1.059609     1.700000     0.950000
   -0.891135     1.882004    -0.937960     1.200000     0.950000
   -2.012317     1.114205    -2.032991     1.200000     0.950000
   -2.584411     0.946808     0.040911     1.700000     0.950000
   -3.397883     1.630946    -0.208832     1.200000     0.950000
   -2.177912     1.311853     0.992206     1.200000     0.950000

