%nproc=24
%mem=48GB
#p uwb97xd guess=mix def2tzvp 

endo-2

0 1
  6  -3.119394  -0.424688   0.248680 
  6  -0.419879  -0.120251  -0.706492 
  1  -4.088288  -0.546294   0.717285 
  1   0.329764  -0.107053  -1.500816 
  6   1.115147   1.433715   0.661526 
  6   0.419879   0.120251   0.706492 
  1   0.573408   2.333332   0.925639 
  1  -0.329764   0.107053   1.500816 
  6   1.447587  -0.995680   0.971182 
  1   1.856335  -0.861775   1.976479 
  1   0.956242  -1.970039   0.954852 
  6   2.394012   1.530985   0.127775 
  1   2.832046   2.513879  -0.007786 
  6   3.119394   0.424688  -0.248680 
  1   4.088288   0.546294  -0.717285 
  6   2.592789  -0.960470  -0.042561 
  1   2.250387  -1.363233  -1.005326 
  1   3.400344  -1.625032   0.276315 
  6  -1.115147  -1.433715  -0.661526 
  1  -0.573408  -2.333332  -0.925639 
  6  -2.394012  -1.530985  -0.127775 
  1  -2.832046  -2.513879   0.007786 
  6  -1.447587   0.995680  -0.971182 
  1  -0.956242   1.970039  -0.954852 
  1  -1.856335   0.861775  -1.976479 
  6  -2.592789   0.960470   0.042561 
  1  -3.400344   1.625032  -0.276315 
  1  -2.250387   1.363233   1.005327 

