%nproc=24
%mem=48GB
#p uwb97xd guess=mix def2tzvp 

endo-2

0 1
  6  -3.122287  -0.438227   0.248880 
  6  -0.617511  -0.221280  -1.053081 
  1  -4.085260  -0.547551   0.734187 
  1   0.353143  -0.127262  -1.519979 
  6   1.102636   1.412163   0.709390 
  6   0.617511   0.221280   1.053081 
  1   0.515379   2.311741   0.843651 
  1  -0.353143   0.127262   1.519979 
  6   1.487333  -1.000908   1.016909 
  1   1.958121  -1.060012   2.006336 
  1   0.889852  -1.905022   0.914109 
  6   2.427513   1.518719   0.108308 
  1   2.835476   2.506492  -0.070486 
  6   3.122287   0.438227  -0.248880 
  1   4.085260   0.547551  -0.734187 
  6   2.589733  -0.953999  -0.045498 
  1   2.230107  -1.341310  -1.006830 
  1   3.400986  -1.622579   0.250079 
  6  -1.102636  -1.412163  -0.709390 
  1  -0.515379  -2.311741  -0.843651 
  6  -2.427513  -1.518719  -0.108308 
  1  -2.835476  -2.506492   0.070486 
  6  -1.487333   1.000908  -1.016909 
  1  -0.889852   1.905022  -0.914109 
  1  -1.958121   1.060012  -2.006336 
  6  -2.589733   0.953999   0.045498 
  1  -3.400986   1.622579  -0.250079 
  1  -2.230107   1.341310   1.006830 

