%nproc=24
%mem=48GB
#p uwb97xd guess=mix def2tzvp 

endo-2

0 1
  6  -3.118167  -0.436644   0.246869 
  6  -0.545806  -0.191796  -0.914188 
  1  -4.082561  -0.549913   0.728278 
  1   0.378997  -0.117066  -1.470182 
  6   1.090778   1.404513   0.687901 
  6   0.545806   0.191796   0.914188 
  1   0.525566   2.309968   0.869336 
  1  -0.378997   0.117066   1.470182 
  6   1.465472  -0.999621   0.988534 
  1   1.907212  -0.960217   1.991218 
  1   0.916358  -1.938398   0.927207 
  6   2.416781   1.516544   0.113188 
  1   2.826666   2.505928  -0.052857 
  6   3.118167   0.436644  -0.246869 
  1   4.082561   0.549913  -0.728278 
  6   2.591769  -0.958251  -0.044432 
  1   2.252895  -1.356273  -1.008942 
  1   3.400642  -1.620360   0.272209 
  6  -1.090778  -1.404513  -0.687901 
  1  -0.525566  -2.309968  -0.869336 
  6  -2.416781  -1.516544  -0.113188 
  1  -2.826666  -2.505928   0.052857 
  6  -1.465472   0.999621  -0.988534 
  1  -0.916358   1.938398  -0.927207 
  1  -1.907212   0.960217  -1.991218 
  6  -2.591769   0.958251   0.044432 
  1  -3.400642   1.620360  -0.272209 
  1  -2.252895   1.356273   1.008942 

