%nproc=24
%mem=48GB
#p uwb97xd guess=mix def2tzvp 

endo-2

0 1
  6  -3.119643  -0.425510   0.248495 
  6  -0.433355  -0.125536  -0.731800 
  1  -4.087091  -0.546708   0.720238 
  1   0.329422  -0.109025  -1.512192 
  6   1.116229   1.433020   0.667264 
  6   0.433355   0.125536   0.731800 
  1   0.569033   2.333521   0.916411 
  1  -0.329422   0.109025   1.512192 
  6   1.452627  -0.997412   0.977245 
  1   1.868951  -0.881848   1.982037 
  1   0.951822  -1.966640   0.951259 
  6   2.395321   1.530145   0.125717 
  1   2.828798   2.513537  -0.019743 
  6   3.119643   0.425510  -0.248495 
  1   4.087091   0.546708  -0.720238 
  6   2.592913  -0.959913  -0.042376 
  1   2.247476  -1.360756  -1.004712 
  1   3.401254  -1.625092   0.272966 
  6  -1.116229  -1.433020  -0.667264 
  1  -0.569033  -2.333521  -0.916411 
  6  -2.395321  -1.530145  -0.125717 
  1  -2.828798  -2.513537   0.019743 
  6  -1.452627   0.997412  -0.977245 
  1  -0.951822   1.966640  -0.951259 
  1  -1.868951   0.881848  -1.982037 
  6  -2.592913   0.959913   0.042376 
  1  -3.401254   1.625092  -0.272966 
  1  -2.247476   1.360756   1.004712 

