%chk=meso-TS_52_2_xp-12.chk
%nproc=24
%mem=48GB
#p uwb97xd guess=mix def2tzvp 
# scrf=(iefpcm,solvent=Cyclohexane,read) nosym 6d 10f 

endo-2
xp-pcm for eta=3

0 1
  6  -3.127568  -0.441485   0.263433 
  6  -0.731288  -0.250831  -1.236755 
  1  -4.070209  -0.533386   0.790505 
  1   0.219568  -0.168512  -1.748484 
  6   1.167775   1.425763   0.792854 
  6   0.731288   0.250831   1.236755 
  1   0.574947   2.322303   0.929282 
  1  -0.219568   0.168512   1.748484 
  6   1.564621  -0.992103   1.115813 
  1   2.097096  -1.123993   2.066407 
  1   0.920060  -1.865000   1.008560 
  6   2.457254   1.530153   0.109662 
  1   2.856885   2.515574  -0.098107 
  6   3.127568   0.441485  -0.263433 
  1   4.070209   0.533386  -0.790505 
  6   2.575144  -0.939221  -0.035211 
  1   2.106401  -1.279780  -0.966682 
  1   3.387766  -1.642218   0.157850 
  6  -1.167775  -1.425763  -0.792854 
  1  -0.574947  -2.322303  -0.929282 
  6  -2.457254  -1.530153  -0.109662 
  1  -2.856885  -2.515574   0.098107 
  6  -1.564621   0.992103  -1.115813 
  1  -0.920060   1.865000  -1.008560 
  1  -2.097096   1.123993  -2.066407 
  6  -2.575144   0.939221   0.035211 
  1  -3.387766   1.642218  -0.157850 
  1  -2.106402   1.279780   0.966682 

qrep pcmdoc geomview  nodis nocav g03defaults tsare=0.075 
nsfe=28
NVESolv=36  SolvMW=84.1595   Rsolv=2.815 
eps=2.0165 RhoS=0.778099999999998

   -3.127568    -0.441485     0.263433     1.700000     1.200000
   -0.731288    -0.250831    -1.236755     1.700000     1.200000
   -4.070209    -0.533386     0.790505     1.200000     1.200000
    0.219568    -0.168512    -1.748484     1.200000     1.200000
    1.167775     1.425763     0.792854     1.700000     1.200000
    0.731288     0.250831     1.236755     1.700000     1.200000
    0.574947     2.322303     0.929282     1.200000     1.200000
   -0.219568     0.168512     1.748484     1.200000     1.200000
    1.564621    -0.992103     1.115813     1.700000     1.200000
    2.097096    -1.123993     2.066407     1.200000     1.200000
    0.920060    -1.865000     1.008560     1.200000     1.200000
    2.457254     1.530153     0.109662     1.700000     1.200000
    2.856885     2.515574    -0.098107     1.200000     1.200000
    3.127568     0.441485    -0.263433     1.700000     1.200000
    4.070209     0.533386    -0.790505     1.200000     1.200000
    2.575144    -0.939221    -0.035211     1.700000     1.200000
    2.106401    -1.279780    -0.966682     1.200000     1.200000
    3.387766    -1.642218     0.157850     1.200000     1.200000
   -1.167775    -1.425763    -0.792854     1.700000     1.200000
   -0.574947    -2.322303    -0.929282     1.200000     1.200000
   -2.457254    -1.530153    -0.109662     1.700000     1.200000
   -2.856885    -2.515574     0.098107     1.200000     1.200000
   -1.564621     0.992103    -1.115813     1.700000     1.200000
   -0.920060     1.865000    -1.008560     1.200000     1.200000
   -2.097096     1.123993    -2.066407     1.200000     1.200000
   -2.575144     0.939221     0.035211     1.700000     1.200000
   -3.387766     1.642218    -0.157850     1.200000     1.200000
   -2.106402     1.279780     0.966682     1.200000     1.200000

--link1--
%chk=meso-TS_52_2_xp-115.chk
%nproc=24
%mem=48GB
#p uwb97xd guess=mix def2tzvp 
# scrf=(iefpcm,solvent=Cyclohexane,read) nosym 6d 10f 

endo-2
xp-pcm for eta=3

0 1
  6  -3.127568  -0.441485   0.263433 
  6  -0.731288  -0.250831  -1.236755 
  1  -4.070209  -0.533386   0.790505 
  1   0.219568  -0.168512  -1.748484 
  6   1.167775   1.425763   0.792854 
  6   0.731288   0.250831   1.236755 
  1   0.574947   2.322303   0.929282 
  1  -0.219568   0.168512   1.748484 
  6   1.564621  -0.992103   1.115813 
  1   2.097096  -1.123993   2.066407 
  1   0.920060  -1.865000   1.008560 
  6   2.457254   1.530153   0.109662 
  1   2.856885   2.515574  -0.098107 
  6   3.127568   0.441485  -0.263433 
  1   4.070209   0.533386  -0.790505 
  6   2.575144  -0.939221  -0.035211 
  1   2.106401  -1.279780  -0.966682 
  1   3.387766  -1.642218   0.157850 
  6  -1.167775  -1.425763  -0.792854 
  1  -0.574947  -2.322303  -0.929282 
  6  -2.457254  -1.530153  -0.109662 
  1  -2.856885  -2.515574   0.098107 
  6  -1.564621   0.992103  -1.115813 
  1  -0.920060   1.865000  -1.008560 
  1  -2.097096   1.123993  -2.066407 
  6  -2.575144   0.939221   0.035211 
  1  -3.387766   1.642218  -0.157850 
  1  -2.106402   1.279780   0.966682 

qrep pcmdoc geomview  nodis nocav g03defaults tsare=0.075 
nsfe=28
NVESolv=36  SolvMW=84.1595   Rsolv=2.815 
eps=2.08074995319988 RhoS=0.87957140140931

   -3.127568    -0.441485     0.263433     1.700000     1.150000
   -0.731288    -0.250831    -1.236755     1.700000     1.150000
   -4.070209    -0.533386     0.790505     1.200000     1.150000
    0.219568    -0.168512    -1.748484     1.200000     1.150000
    1.167775     1.425763     0.792854     1.700000     1.150000
    0.731288     0.250831     1.236755     1.700000     1.150000
    0.574947     2.322303     0.929282     1.200000     1.150000
   -0.219568     0.168512     1.748484     1.200000     1.150000
    1.564621    -0.992103     1.115813     1.700000     1.150000
    2.097096    -1.123993     2.066407     1.200000     1.150000
    0.920060    -1.865000     1.008560     1.200000     1.150000
    2.457254     1.530153     0.109662     1.700000     1.150000
    2.856885     2.515574    -0.098107     1.200000     1.150000
    3.127568     0.441485    -0.263433     1.700000     1.150000
    4.070209     0.533386    -0.790505     1.200000     1.150000
    2.575144    -0.939221    -0.035211     1.700000     1.150000
    2.106401    -1.279780    -0.966682     1.200000     1.150000
    3.387766    -1.642218     0.157850     1.200000     1.150000
   -1.167775    -1.425763    -0.792854     1.700000     1.150000
   -0.574947    -2.322303    -0.929282     1.200000     1.150000
   -2.457254    -1.530153    -0.109662     1.700000     1.150000
   -2.856885    -2.515574     0.098107     1.200000     1.150000
   -1.564621     0.992103    -1.115813     1.700000     1.150000
   -0.920060     1.865000    -1.008560     1.200000     1.150000
   -2.097096     1.123993    -2.066407     1.200000     1.150000
   -2.575144     0.939221     0.035211     1.700000     1.150000
   -3.387766     1.642218    -0.157850     1.200000     1.150000
   -2.106402     1.279780     0.966682     1.200000     1.150000

--link1--
%chk=meso-TS_52_2_xp-110.chk
%nproc=24
%mem=48GB
#p uwb97xd guess=mix def2tzvp 
# scrf=(iefpcm,solvent=Cyclohexane,read) nosym 6d 10f 

endo-2
xp-pcm for eta=3

0 1
  6  -3.127568  -0.441485   0.263433 
  6  -0.731288  -0.250831  -1.236755 
  1  -4.070209  -0.533386   0.790505 
  1   0.219568  -0.168512  -1.748484 
  6   1.167775   1.425763   0.792854 
  6   0.731288   0.250831   1.236755 
  1   0.574947   2.322303   0.929282 
  1  -0.219568   0.168512   1.748484 
  6   1.564621  -0.992103   1.115813 
  1   2.097096  -1.123993   2.066407 
  1   0.920060  -1.865000   1.008560 
  6   2.457254   1.530153   0.109662 
  1   2.856885   2.515574  -0.098107 
  6   3.127568   0.441485  -0.263433 
  1   4.070209   0.533386  -0.790505 
  6   2.575144  -0.939221  -0.035211 
  1   2.106401  -1.279780  -0.966682 
  1   3.387766  -1.642218   0.157850 
  6  -1.167775  -1.425763  -0.792854 
  1  -0.574947  -2.322303  -0.929282 
  6  -2.457254  -1.530153  -0.109662 
  1  -2.856885  -2.515574   0.098107 
  6  -1.564621   0.992103  -1.115813 
  1  -0.920060   1.865000  -1.008560 
  1  -2.097096   1.123993  -2.066407 
  6  -2.575144   0.939221   0.035211 
  1  -3.387766   1.642218  -0.157850 
  1  -2.106402   1.279780   0.966682 

qrep pcmdoc geomview  nodis nocav g03defaults tsare=0.075 
nsfe=28
NVESolv=36  SolvMW=84.1595   Rsolv=2.815 
eps=2.14797859684703 RhoS=0.992403372535132

   -3.127568    -0.441485     0.263433     1.700000     1.100000
   -0.731288    -0.250831    -1.236755     1.700000     1.100000
   -4.070209    -0.533386     0.790505     1.200000     1.100000
    0.219568    -0.168512    -1.748484     1.200000     1.100000
    1.167775     1.425763     0.792854     1.700000     1.100000
    0.731288     0.250831     1.236755     1.700000     1.100000
    0.574947     2.322303     0.929282     1.200000     1.100000
   -0.219568     0.168512     1.748484     1.200000     1.100000
    1.564621    -0.992103     1.115813     1.700000     1.100000
    2.097096    -1.123993     2.066407     1.200000     1.100000
    0.920060    -1.865000     1.008560     1.200000     1.100000
    2.457254     1.530153     0.109662     1.700000     1.100000
    2.856885     2.515574    -0.098107     1.200000     1.100000
    3.127568     0.441485    -0.263433     1.700000     1.100000
    4.070209     0.533386    -0.790505     1.200000     1.100000
    2.575144    -0.939221    -0.035211     1.700000     1.100000
    2.106401    -1.279780    -0.966682     1.200000     1.100000
    3.387766    -1.642218     0.157850     1.200000     1.100000
   -1.167775    -1.425763    -0.792854     1.700000     1.100000
   -0.574947    -2.322303    -0.929282     1.200000     1.100000
   -2.457254    -1.530153    -0.109662     1.700000     1.100000
   -2.856885    -2.515574     0.098107     1.200000     1.100000
   -1.564621     0.992103    -1.115813     1.700000     1.100000
   -0.920060     1.865000    -1.008560     1.200000     1.100000
   -2.097096     1.123993    -2.066407     1.200000     1.100000
   -2.575144     0.939221     0.035211     1.700000     1.100000
   -3.387766     1.642218    -0.157850     1.200000     1.100000
   -2.106402     1.279780     0.966682     1.200000     1.100000

--link1--
%chk=meso-TS_52_2_xp-105.chk
%nproc=24
%mem=48GB
#p uwb97xd guess=mix def2tzvp 
# scrf=(iefpcm,solvent=Cyclohexane,read) nosym 6d 10f 

endo-2
xp-pcm for eta=3

0 1
  6  -3.127568  -0.441485   0.263433 
  6  -0.731288  -0.250831  -1.236755 
  1  -4.070209  -0.533386   0.790505 
  1   0.219568  -0.168512  -1.748484 
  6   1.167775   1.425763   0.792854 
  6   0.731288   0.250831   1.236755 
  1   0.574947   2.322303   0.929282 
  1  -0.219568   0.168512   1.748484 
  6   1.564621  -0.992103   1.115813 
  1   2.097096  -1.123993   2.066407 
  1   0.920060  -1.865000   1.008560 
  6   2.457254   1.530153   0.109662 
  1   2.856885   2.515574  -0.098107 
  6   3.127568   0.441485  -0.263433 
  1   4.070209   0.533386  -0.790505 
  6   2.575144  -0.939221  -0.035211 
  1   2.106401  -1.279780  -0.966682 
  1   3.387766  -1.642218   0.157850 
  6  -1.167775  -1.425763  -0.792854 
  1  -0.574947  -2.322303  -0.929282 
  6  -2.457254  -1.530153  -0.109662 
  1  -2.856885  -2.515574   0.098107 
  6  -1.564621   0.992103  -1.115813 
  1  -0.920060   1.865000  -1.008560 
  1  -2.097096   1.123993  -2.066407 
  6  -2.575144   0.939221   0.035211 
  1  -3.387766   1.642218  -0.157850 
  1  -2.106402   1.279780   0.966682 

qrep pcmdoc geomview  nodis nocav g03defaults tsare=0.075 
nsfe=28
NVESolv=36  SolvMW=84.1595   Rsolv=2.815 
eps=2.22376880117094 RhoS=1.12776705486046

   -3.127568    -0.441485     0.263433     1.700000     1.050000
   -0.731288    -0.250831    -1.236755     1.700000     1.050000
   -4.070209    -0.533386     0.790505     1.200000     1.050000
    0.219568    -0.168512    -1.748484     1.200000     1.050000
    1.167775     1.425763     0.792854     1.700000     1.050000
    0.731288     0.250831     1.236755     1.700000     1.050000
    0.574947     2.322303     0.929282     1.200000     1.050000
   -0.219568     0.168512     1.748484     1.200000     1.050000
    1.564621    -0.992103     1.115813     1.700000     1.050000
    2.097096    -1.123993     2.066407     1.200000     1.050000
    0.920060    -1.865000     1.008560     1.200000     1.050000
    2.457254     1.530153     0.109662     1.700000     1.050000
    2.856885     2.515574    -0.098107     1.200000     1.050000
    3.127568     0.441485    -0.263433     1.700000     1.050000
    4.070209     0.533386    -0.790505     1.200000     1.050000
    2.575144    -0.939221    -0.035211     1.700000     1.050000
    2.106401    -1.279780    -0.966682     1.200000     1.050000
    3.387766    -1.642218     0.157850     1.200000     1.050000
   -1.167775    -1.425763    -0.792854     1.700000     1.050000
   -0.574947    -2.322303    -0.929282     1.200000     1.050000
   -2.457254    -1.530153    -0.109662     1.700000     1.050000
   -2.856885    -2.515574     0.098107     1.200000     1.050000
   -1.564621     0.992103    -1.115813     1.700000     1.050000
   -0.920060     1.865000    -1.008560     1.200000     1.050000
   -2.097096     1.123993    -2.066407     1.200000     1.050000
   -2.575144     0.939221     0.035211     1.700000     1.050000
   -3.387766     1.642218    -0.157850     1.200000     1.050000
   -2.106402     1.279780     0.966682     1.200000     1.050000

--link1--
%chk=meso-TS_52_2_xp-100.chk
%nproc=24
%mem=48GB
#p uwb97xd guess=mix def2tzvp 
# scrf=(iefpcm,solvent=Cyclohexane,read) nosym 6d 10f 

endo-2
xp-pcm for eta=3

0 1
  6  -3.127568  -0.441485   0.263433 
  6  -0.731288  -0.250831  -1.236755 
  1  -4.070209  -0.533386   0.790505 
  1   0.219568  -0.168512  -1.748484 
  6   1.167775   1.425763   0.792854 
  6   0.731288   0.250831   1.236755 
  1   0.574947   2.322303   0.929282 
  1  -0.219568   0.168512   1.748484 
  6   1.564621  -0.992103   1.115813 
  1   2.097096  -1.123993   2.066407 
  1   0.920060  -1.865000   1.008560 
  6   2.457254   1.530153   0.109662 
  1   2.856885   2.515574  -0.098107 
  6   3.127568   0.441485  -0.263433 
  1   4.070209   0.533386  -0.790505 
  6   2.575144  -0.939221  -0.035211 
  1   2.106401  -1.279780  -0.966682 
  1   3.387766  -1.642218   0.157850 
  6  -1.167775  -1.425763  -0.792854 
  1  -0.574947  -2.322303  -0.929282 
  6  -2.457254  -1.530153  -0.109662 
  1  -2.856885  -2.515574   0.098107 
  6  -1.564621   0.992103  -1.115813 
  1  -0.920060   1.865000  -1.008560 
  1  -2.097096   1.123993  -2.066407 
  6  -2.575144   0.939221   0.035211 
  1  -3.387766   1.642218  -0.157850 
  1  -2.106402   1.279780   0.966682 

qrep pcmdoc geomview  nodis nocav g03defaults tsare=0.075 
nsfe=28
NVESolv=36  SolvMW=84.1595   Rsolv=2.815 
eps=2.30480546666792 RhoS=1.28207131826017

   -3.127568    -0.441485     0.263433     1.700000     1.000000
   -0.731288    -0.250831    -1.236755     1.700000     1.000000
   -4.070209    -0.533386     0.790505     1.200000     1.000000
    0.219568    -0.168512    -1.748484     1.200000     1.000000
    1.167775     1.425763     0.792854     1.700000     1.000000
    0.731288     0.250831     1.236755     1.700000     1.000000
    0.574947     2.322303     0.929282     1.200000     1.000000
   -0.219568     0.168512     1.748484     1.200000     1.000000
    1.564621    -0.992103     1.115813     1.700000     1.000000
    2.097096    -1.123993     2.066407     1.200000     1.000000
    0.920060    -1.865000     1.008560     1.200000     1.000000
    2.457254     1.530153     0.109662     1.700000     1.000000
    2.856885     2.515574    -0.098107     1.200000     1.000000
    3.127568     0.441485    -0.263433     1.700000     1.000000
    4.070209     0.533386    -0.790505     1.200000     1.000000
    2.575144    -0.939221    -0.035211     1.700000     1.000000
    2.106401    -1.279780    -0.966682     1.200000     1.000000
    3.387766    -1.642218     0.157850     1.200000     1.000000
   -1.167775    -1.425763    -0.792854     1.700000     1.000000
   -0.574947    -2.322303    -0.929282     1.200000     1.000000
   -2.457254    -1.530153    -0.109662     1.700000     1.000000
   -2.856885    -2.515574     0.098107     1.200000     1.000000
   -1.564621     0.992103    -1.115813     1.700000     1.000000
   -0.920060     1.865000    -1.008560     1.200000     1.000000
   -2.097096     1.123993    -2.066407     1.200000     1.000000
   -2.575144     0.939221     0.035211     1.700000     1.000000
   -3.387766     1.642218    -0.157850     1.200000     1.000000
   -2.106402     1.279780     0.966682     1.200000     1.000000

--link1--
%chk=meso-TS_52_2_xp-0975.chk
%nproc=24
%mem=48GB
#p uwb97xd guess=mix def2tzvp 
# scrf=(iefpcm,solvent=Cyclohexane,read) nosym 6d 10f 

endo-2
xp-pcm for eta=3

0 1
  6  -3.127568  -0.441485   0.263433 
  6  -0.731288  -0.250831  -1.236755 
  1  -4.070209  -0.533386   0.790505 
  1   0.219568  -0.168512  -1.748484 
  6   1.167775   1.425763   0.792854 
  6   0.731288   0.250831   1.236755 
  1   0.574947   2.322303   0.929282 
  1  -0.219568   0.168512   1.748484 
  6   1.564621  -0.992103   1.115813 
  1   2.097096  -1.123993   2.066407 
  1   0.920060  -1.865000   1.008560 
  6   2.457254   1.530153   0.109662 
  1   2.856885   2.515574  -0.098107 
  6   3.127568   0.441485  -0.263433 
  1   4.070209   0.533386  -0.790505 
  6   2.575144  -0.939221  -0.035211 
  1   2.106401  -1.279780  -0.966682 
  1   3.387766  -1.642218   0.157850 
  6  -1.167775  -1.425763  -0.792854 
  1  -0.574947  -2.322303  -0.929282 
  6  -2.457254  -1.530153  -0.109662 
  1  -2.856885  -2.515574   0.098107 
  6  -1.564621   0.992103  -1.115813 
  1  -0.920060   1.865000  -1.008560 
  1  -2.097096   1.123993  -2.066407 
  6  -2.575144   0.939221   0.035211 
  1  -3.387766   1.642218  -0.157850 
  1  -2.106402   1.279780   0.966682 

qrep pcmdoc geomview  nodis nocav g03defaults tsare=0.075 
nsfe=28
NVESolv=36  SolvMW=84.1595   Rsolv=2.815 
eps=2.34745273026226 RhoS=1.36724935387803

   -3.127568    -0.441485     0.263433     1.700000     0.975000
   -0.731288    -0.250831    -1.236755     1.700000     0.975000
   -4.070209    -0.533386     0.790505     1.200000     0.975000
    0.219568    -0.168512    -1.748484     1.200000     0.975000
    1.167775     1.425763     0.792854     1.700000     0.975000
    0.731288     0.250831     1.236755     1.700000     0.975000
    0.574947     2.322303     0.929282     1.200000     0.975000
   -0.219568     0.168512     1.748484     1.200000     0.975000
    1.564621    -0.992103     1.115813     1.700000     0.975000
    2.097096    -1.123993     2.066407     1.200000     0.975000
    0.920060    -1.865000     1.008560     1.200000     0.975000
    2.457254     1.530153     0.109662     1.700000     0.975000
    2.856885     2.515574    -0.098107     1.200000     0.975000
    3.127568     0.441485    -0.263433     1.700000     0.975000
    4.070209     0.533386    -0.790505     1.200000     0.975000
    2.575144    -0.939221    -0.035211     1.700000     0.975000
    2.106401    -1.279780    -0.966682     1.200000     0.975000
    3.387766    -1.642218     0.157850     1.200000     0.975000
   -1.167775    -1.425763    -0.792854     1.700000     0.975000
   -0.574947    -2.322303    -0.929282     1.200000     0.975000
   -2.457254    -1.530153    -0.109662     1.700000     0.975000
   -2.856885    -2.515574     0.098107     1.200000     0.975000
   -1.564621     0.992103    -1.115813     1.700000     0.975000
   -0.920060     1.865000    -1.008560     1.200000     0.975000
   -2.097096     1.123993    -2.066407     1.200000     0.975000
   -2.575144     0.939221     0.035211     1.700000     0.975000
   -3.387766     1.642218    -0.157850     1.200000     0.975000
   -2.106402     1.279780     0.966682     1.200000     0.975000

--link1--
%chk=meso-TS_52_2_xp-095.chk
%nproc=24
%mem=48GB
#p uwb97xd guess=mix def2tzvp 
# scrf=(iefpcm,solvent=Cyclohexane,read) nosym 6d 10f 

endo-2
xp-pcm for eta=3

0 1
  6  -3.127568  -0.441485   0.263433 
  6  -0.731288  -0.250831  -1.236755 
  1  -4.070209  -0.533386   0.790505 
  1   0.219568  -0.168512  -1.748484 
  6   1.167775   1.425763   0.792854 
  6   0.731288   0.250831   1.236755 
  1   0.574947   2.322303   0.929282 
  1  -0.219568   0.168512   1.748484 
  6   1.564621  -0.992103   1.115813 
  1   2.097096  -1.123993   2.066407 
  1   0.920060  -1.865000   1.008560 
  6   2.457254   1.530153   0.109662 
  1   2.856885   2.515574  -0.098107 
  6   3.127568   0.441485  -0.263433 
  1   4.070209   0.533386  -0.790505 
  6   2.575144  -0.939221  -0.035211 
  1   2.106401  -1.279780  -0.966682 
  1   3.387766  -1.642218   0.157850 
  6  -1.167775  -1.425763  -0.792854 
  1  -0.574947  -2.322303  -0.929282 
  6  -2.457254  -1.530153  -0.109662 
  1  -2.856885  -2.515574   0.098107 
  6  -1.564621   0.992103  -1.115813 
  1  -0.920060   1.865000  -1.008560 
  1  -2.097096   1.123993  -2.066407 
  6  -2.575144   0.939221   0.035211 
  1  -3.387766   1.642218  -0.157850 
  1  -2.106402   1.279780   0.966682 

qrep pcmdoc geomview  nodis nocav g03defaults tsare=0.075 
nsfe=28
NVESolv=36  SolvMW=84.1595   Rsolv=2.815 
eps=2.39339884323873 RhoS=1.4620813611373

   -3.127568    -0.441485     0.263433     1.700000     0.950000
   -0.731288    -0.250831    -1.236755     1.700000     0.950000
   -4.070209    -0.533386     0.790505     1.200000     0.950000
    0.219568    -0.168512    -1.748484     1.200000     0.950000
    1.167775     1.425763     0.792854     1.700000     0.950000
    0.731288     0.250831     1.236755     1.700000     0.950000
    0.574947     2.322303     0.929282     1.200000     0.950000
   -0.219568     0.168512     1.748484     1.200000     0.950000
    1.564621    -0.992103     1.115813     1.700000     0.950000
    2.097096    -1.123993     2.066407     1.200000     0.950000
    0.920060    -1.865000     1.008560     1.200000     0.950000
    2.457254     1.530153     0.109662     1.700000     0.950000
    2.856885     2.515574    -0.098107     1.200000     0.950000
    3.127568     0.441485    -0.263433     1.700000     0.950000
    4.070209     0.533386    -0.790505     1.200000     0.950000
    2.575144    -0.939221    -0.035211     1.700000     0.950000
    2.106401    -1.279780    -0.966682     1.200000     0.950000
    3.387766    -1.642218     0.157850     1.200000     0.950000
   -1.167775    -1.425763    -0.792854     1.700000     0.950000
   -0.574947    -2.322303    -0.929282     1.200000     0.950000
   -2.457254    -1.530153    -0.109662     1.700000     0.950000
   -2.856885    -2.515574     0.098107     1.200000     0.950000
   -1.564621     0.992103    -1.115813     1.700000     0.950000
   -0.920060     1.865000    -1.008560     1.200000     0.950000
   -2.097096     1.123993    -2.066407     1.200000     0.950000
   -2.575144     0.939221     0.035211     1.700000     0.950000
   -3.387766     1.642218    -0.157850     1.200000     0.950000
   -2.106402     1.279780     0.966682     1.200000     0.950000

