%chk=meso-TS_61_2_xp-12.chk
%nproc=24
%mem=48GB
#p uwb97xd guess=mix def2tzvp 
# scrf=(iefpcm,solvent=Cyclohexane,read) nosym guess=only pop=none 

endo-2
xp-pcm for eta=3

0 1
  6  -3.125716  -0.440978   0.270604 
  6  -0.764956  -0.259235  -1.286409 
  1  -4.058512  -0.527829   0.815709 
  1   0.176050  -0.180561  -1.817052 
  6   1.190843   1.431055   0.823776 
  6   0.764956   0.259235   1.286409 
  1   0.599752   2.328066   0.965494 
  1  -0.176050   0.180561   1.817052 
  6   1.594875  -0.984626   1.150152 
  1   2.156222  -1.113793   2.084526 
  1   0.946262  -1.857408   1.063673 
  6   2.468178   1.532445   0.116620 
  1   2.867487   2.516684  -0.097237 
  6   3.125716   0.440978  -0.270604 
  1   4.058512   0.527829  -0.815709 
  6   2.566903  -0.935493  -0.033026 
  1   2.059865  -1.262257  -0.949209 
  1   3.377104  -1.649532   0.126360 
  6  -1.190843  -1.431055  -0.823776 
  1  -0.599752  -2.328066  -0.965494 
  6  -2.468178  -1.532445  -0.116620 
  1  -2.867487  -2.516684   0.097237 
  6  -1.594875   0.984626  -1.150152 
  1  -0.946262   1.857408  -1.063673 
  1  -2.156222   1.113793  -2.084526 
  6  -2.566903   0.935493   0.033026 
  1  -3.377104   1.649532  -0.126360 
  1  -2.059865   1.262257   0.949209 

qrep pcmdoc geomview  nodis nocav g03defaults tsare=0.075 
nsfe=28
NVESolv=36  SolvMW=84.1595   Rsolv=2.815 
eps=2.0165 RhoS=0.7781

   -3.125716    -0.440978     0.270604     1.700000     1.200000
   -0.764956    -0.259235    -1.286409     1.700000     1.200000
   -4.058512    -0.527829     0.815709     1.200000     1.200000
    0.176050    -0.180561    -1.817052     1.200000     1.200000
    1.190843     1.431055     0.823776     1.700000     1.200000
    0.764956     0.259235     1.286409     1.700000     1.200000
    0.599752     2.328066     0.965494     1.200000     1.200000
   -0.176050     0.180561     1.817052     1.200000     1.200000
    1.594875    -0.984626     1.150152     1.700000     1.200000
    2.156222    -1.113793     2.084526     1.200000     1.200000
    0.946262    -1.857408     1.063673     1.200000     1.200000
    2.468178     1.532445     0.116620     1.700000     1.200000
    2.867487     2.516684    -0.097237     1.200000     1.200000
    3.125716     0.440978    -0.270604     1.700000     1.200000
    4.058512     0.527829    -0.815709     1.200000     1.200000
    2.566903    -0.935493    -0.033026     1.700000     1.200000
    2.059865    -1.262257    -0.949209     1.200000     1.200000
    3.377104    -1.649532     0.126360     1.200000     1.200000
   -1.190843    -1.431055    -0.823776     1.700000     1.200000
   -0.599752    -2.328066    -0.965494     1.200000     1.200000
   -2.468178    -1.532445    -0.116620     1.700000     1.200000
   -2.867487    -2.516684     0.097237     1.200000     1.200000
   -1.594875     0.984626    -1.150152     1.700000     1.200000
   -0.946262     1.857408    -1.063673     1.200000     1.200000
   -2.156222     1.113793    -2.084526     1.200000     1.200000
   -2.566903     0.935493     0.033026     1.700000     1.200000
   -3.377104     1.649532    -0.126360     1.200000     1.200000
   -2.059865     1.262257     0.949209     1.200000     1.200000

--link1--
%chk=meso-TS_61_2_xp-115.chk
%nproc=24
%mem=48GB
#p uwb97xd guess=mix def2tzvp 
# scrf=(iefpcm,solvent=Cyclohexane,read) nosym guess=only pop=none 

endo-2
xp-pcm for eta=3

0 1
  6  -3.125716  -0.440978   0.270604 
  6  -0.764956  -0.259235  -1.286409 
  1  -4.058512  -0.527829   0.815709 
  1   0.176050  -0.180561  -1.817052 
  6   1.190843   1.431055   0.823776 
  6   0.764956   0.259235   1.286409 
  1   0.599752   2.328066   0.965494 
  1  -0.176050   0.180561   1.817052 
  6   1.594875  -0.984626   1.150152 
  1   2.156222  -1.113793   2.084526 
  1   0.946262  -1.857408   1.063673 
  6   2.468178   1.532445   0.116620 
  1   2.867487   2.516684  -0.097237 
  6   3.125716   0.440978  -0.270604 
  1   4.058512   0.527829  -0.815709 
  6   2.566903  -0.935493  -0.033026 
  1   2.059865  -1.262257  -0.949209 
  1   3.377104  -1.649532   0.126360 
  6  -1.190843  -1.431055  -0.823776 
  1  -0.599752  -2.328066  -0.965494 
  6  -2.468178  -1.532445  -0.116620 
  1  -2.867487  -2.516684   0.097237 
  6  -1.594875   0.984626  -1.150152 
  1  -0.946262   1.857408  -1.063673 
  1  -2.156222   1.113793  -2.084526 
  6  -2.566903   0.935493   0.033026 
  1  -3.377104   1.649532  -0.126360 
  1  -2.059865   1.262257   0.949209 

qrep pcmdoc geomview  nodis nocav g03defaults tsare=0.075 
nsfe=28
NVESolv=36  SolvMW=84.1595   Rsolv=2.815 
eps=2.0165 RhoS=0.7781

   -3.125716    -0.440978     0.270604     1.700000     1.150000
   -0.764956    -0.259235    -1.286409     1.700000     1.150000
   -4.058512    -0.527829     0.815709     1.200000     1.150000
    0.176050    -0.180561    -1.817052     1.200000     1.150000
    1.190843     1.431055     0.823776     1.700000     1.150000
    0.764956     0.259235     1.286409     1.700000     1.150000
    0.599752     2.328066     0.965494     1.200000     1.150000
   -0.176050     0.180561     1.817052     1.200000     1.150000
    1.594875    -0.984626     1.150152     1.700000     1.150000
    2.156222    -1.113793     2.084526     1.200000     1.150000
    0.946262    -1.857408     1.063673     1.200000     1.150000
    2.468178     1.532445     0.116620     1.700000     1.150000
    2.867487     2.516684    -0.097237     1.200000     1.150000
    3.125716     0.440978    -0.270604     1.700000     1.150000
    4.058512     0.527829    -0.815709     1.200000     1.150000
    2.566903    -0.935493    -0.033026     1.700000     1.150000
    2.059865    -1.262257    -0.949209     1.200000     1.150000
    3.377104    -1.649532     0.126360     1.200000     1.150000
   -1.190843    -1.431055    -0.823776     1.700000     1.150000
   -0.599752    -2.328066    -0.965494     1.200000     1.150000
   -2.468178    -1.532445    -0.116620     1.700000     1.150000
   -2.867487    -2.516684     0.097237     1.200000     1.150000
   -1.594875     0.984626    -1.150152     1.700000     1.150000
   -0.946262     1.857408    -1.063673     1.200000     1.150000
   -2.156222     1.113793    -2.084526     1.200000     1.150000
   -2.566903     0.935493     0.033026     1.700000     1.150000
   -3.377104     1.649532    -0.126360     1.200000     1.150000
   -2.059865     1.262257     0.949209     1.200000     1.150000

--link1--
%chk=meso-TS_61_2_xp-110.chk
%nproc=24
%mem=48GB
#p uwb97xd guess=mix def2tzvp 
# scrf=(iefpcm,solvent=Cyclohexane,read) nosym guess=only pop=none 

endo-2
xp-pcm for eta=3

0 1
  6  -3.125716  -0.440978   0.270604 
  6  -0.764956  -0.259235  -1.286409 
  1  -4.058512  -0.527829   0.815709 
  1   0.176050  -0.180561  -1.817052 
  6   1.190843   1.431055   0.823776 
  6   0.764956   0.259235   1.286409 
  1   0.599752   2.328066   0.965494 
  1  -0.176050   0.180561   1.817052 
  6   1.594875  -0.984626   1.150152 
  1   2.156222  -1.113793   2.084526 
  1   0.946262  -1.857408   1.063673 
  6   2.468178   1.532445   0.116620 
  1   2.867487   2.516684  -0.097237 
  6   3.125716   0.440978  -0.270604 
  1   4.058512   0.527829  -0.815709 
  6   2.566903  -0.935493  -0.033026 
  1   2.059865  -1.262257  -0.949209 
  1   3.377104  -1.649532   0.126360 
  6  -1.190843  -1.431055  -0.823776 
  1  -0.599752  -2.328066  -0.965494 
  6  -2.468178  -1.532445  -0.116620 
  1  -2.867487  -2.516684   0.097237 
  6  -1.594875   0.984626  -1.150152 
  1  -0.946262   1.857408  -1.063673 
  1  -2.156222   1.113793  -2.084526 
  6  -2.566903   0.935493   0.033026 
  1  -3.377104   1.649532  -0.126360 
  1  -2.059865   1.262257   0.949209 

qrep pcmdoc geomview  nodis nocav g03defaults tsare=0.075 
nsfe=28
NVESolv=36  SolvMW=84.1595   Rsolv=2.815 
eps=2.0165 RhoS=0.7781

   -3.125716    -0.440978     0.270604     1.700000     1.100000
   -0.764956    -0.259235    -1.286409     1.700000     1.100000
   -4.058512    -0.527829     0.815709     1.200000     1.100000
    0.176050    -0.180561    -1.817052     1.200000     1.100000
    1.190843     1.431055     0.823776     1.700000     1.100000
    0.764956     0.259235     1.286409     1.700000     1.100000
    0.599752     2.328066     0.965494     1.200000     1.100000
   -0.176050     0.180561     1.817052     1.200000     1.100000
    1.594875    -0.984626     1.150152     1.700000     1.100000
    2.156222    -1.113793     2.084526     1.200000     1.100000
    0.946262    -1.857408     1.063673     1.200000     1.100000
    2.468178     1.532445     0.116620     1.700000     1.100000
    2.867487     2.516684    -0.097237     1.200000     1.100000
    3.125716     0.440978    -0.270604     1.700000     1.100000
    4.058512     0.527829    -0.815709     1.200000     1.100000
    2.566903    -0.935493    -0.033026     1.700000     1.100000
    2.059865    -1.262257    -0.949209     1.200000     1.100000
    3.377104    -1.649532     0.126360     1.200000     1.100000
   -1.190843    -1.431055    -0.823776     1.700000     1.100000
   -0.599752    -2.328066    -0.965494     1.200000     1.100000
   -2.468178    -1.532445    -0.116620     1.700000     1.100000
   -2.867487    -2.516684     0.097237     1.200000     1.100000
   -1.594875     0.984626    -1.150152     1.700000     1.100000
   -0.946262     1.857408    -1.063673     1.200000     1.100000
   -2.156222     1.113793    -2.084526     1.200000     1.100000
   -2.566903     0.935493     0.033026     1.700000     1.100000
   -3.377104     1.649532    -0.126360     1.200000     1.100000
   -2.059865     1.262257     0.949209     1.200000     1.100000

--link1--
%chk=meso-TS_61_2_xp-105.chk
%nproc=24
%mem=48GB
#p uwb97xd guess=mix def2tzvp 
# scrf=(iefpcm,solvent=Cyclohexane,read) nosym guess=only pop=none 

endo-2
xp-pcm for eta=3

0 1
  6  -3.125716  -0.440978   0.270604 
  6  -0.764956  -0.259235  -1.286409 
  1  -4.058512  -0.527829   0.815709 
  1   0.176050  -0.180561  -1.817052 
  6   1.190843   1.431055   0.823776 
  6   0.764956   0.259235   1.286409 
  1   0.599752   2.328066   0.965494 
  1  -0.176050   0.180561   1.817052 
  6   1.594875  -0.984626   1.150152 
  1   2.156222  -1.113793   2.084526 
  1   0.946262  -1.857408   1.063673 
  6   2.468178   1.532445   0.116620 
  1   2.867487   2.516684  -0.097237 
  6   3.125716   0.440978  -0.270604 
  1   4.058512   0.527829  -0.815709 
  6   2.566903  -0.935493  -0.033026 
  1   2.059865  -1.262257  -0.949209 
  1   3.377104  -1.649532   0.126360 
  6  -1.190843  -1.431055  -0.823776 
  1  -0.599752  -2.328066  -0.965494 
  6  -2.468178  -1.532445  -0.116620 
  1  -2.867487  -2.516684   0.097237 
  6  -1.594875   0.984626  -1.150152 
  1  -0.946262   1.857408  -1.063673 
  1  -2.156222   1.113793  -2.084526 
  6  -2.566903   0.935493   0.033026 
  1  -3.377104   1.649532  -0.126360 
  1  -2.059865   1.262257   0.949209 

qrep pcmdoc geomview  nodis nocav g03defaults tsare=0.075 
nsfe=28
NVESolv=36  SolvMW=84.1595   Rsolv=2.815 
eps=2.0165 RhoS=0.7781

   -3.125716    -0.440978     0.270604     1.700000     1.050000
   -0.764956    -0.259235    -1.286409     1.700000     1.050000
   -4.058512    -0.527829     0.815709     1.200000     1.050000
    0.176050    -0.180561    -1.817052     1.200000     1.050000
    1.190843     1.431055     0.823776     1.700000     1.050000
    0.764956     0.259235     1.286409     1.700000     1.050000
    0.599752     2.328066     0.965494     1.200000     1.050000
   -0.176050     0.180561     1.817052     1.200000     1.050000
    1.594875    -0.984626     1.150152     1.700000     1.050000
    2.156222    -1.113793     2.084526     1.200000     1.050000
    0.946262    -1.857408     1.063673     1.200000     1.050000
    2.468178     1.532445     0.116620     1.700000     1.050000
    2.867487     2.516684    -0.097237     1.200000     1.050000
    3.125716     0.440978    -0.270604     1.700000     1.050000
    4.058512     0.527829    -0.815709     1.200000     1.050000
    2.566903    -0.935493    -0.033026     1.700000     1.050000
    2.059865    -1.262257    -0.949209     1.200000     1.050000
    3.377104    -1.649532     0.126360     1.200000     1.050000
   -1.190843    -1.431055    -0.823776     1.700000     1.050000
   -0.599752    -2.328066    -0.965494     1.200000     1.050000
   -2.468178    -1.532445    -0.116620     1.700000     1.050000
   -2.867487    -2.516684     0.097237     1.200000     1.050000
   -1.594875     0.984626    -1.150152     1.700000     1.050000
   -0.946262     1.857408    -1.063673     1.200000     1.050000
   -2.156222     1.113793    -2.084526     1.200000     1.050000
   -2.566903     0.935493     0.033026     1.700000     1.050000
   -3.377104     1.649532    -0.126360     1.200000     1.050000
   -2.059865     1.262257     0.949209     1.200000     1.050000

--link1--
%chk=meso-TS_61_2_xp-100.chk
%nproc=24
%mem=48GB
#p uwb97xd guess=mix def2tzvp 
# scrf=(iefpcm,solvent=Cyclohexane,read) nosym guess=only pop=none 

endo-2
xp-pcm for eta=3

0 1
  6  -3.125716  -0.440978   0.270604 
  6  -0.764956  -0.259235  -1.286409 
  1  -4.058512  -0.527829   0.815709 
  1   0.176050  -0.180561  -1.817052 
  6   1.190843   1.431055   0.823776 
  6   0.764956   0.259235   1.286409 
  1   0.599752   2.328066   0.965494 
  1  -0.176050   0.180561   1.817052 
  6   1.594875  -0.984626   1.150152 
  1   2.156222  -1.113793   2.084526 
  1   0.946262  -1.857408   1.063673 
  6   2.468178   1.532445   0.116620 
  1   2.867487   2.516684  -0.097237 
  6   3.125716   0.440978  -0.270604 
  1   4.058512   0.527829  -0.815709 
  6   2.566903  -0.935493  -0.033026 
  1   2.059865  -1.262257  -0.949209 
  1   3.377104  -1.649532   0.126360 
  6  -1.190843  -1.431055  -0.823776 
  1  -0.599752  -2.328066  -0.965494 
  6  -2.468178  -1.532445  -0.116620 
  1  -2.867487  -2.516684   0.097237 
  6  -1.594875   0.984626  -1.150152 
  1  -0.946262   1.857408  -1.063673 
  1  -2.156222   1.113793  -2.084526 
  6  -2.566903   0.935493   0.033026 
  1  -3.377104   1.649532  -0.126360 
  1  -2.059865   1.262257   0.949209 

qrep pcmdoc geomview  nodis nocav g03defaults tsare=0.075 
nsfe=28
NVESolv=36  SolvMW=84.1595   Rsolv=2.815 
eps=2.0165 RhoS=0.7781

   -3.125716    -0.440978     0.270604     1.700000     1.000000
   -0.764956    -0.259235    -1.286409     1.700000     1.000000
   -4.058512    -0.527829     0.815709     1.200000     1.000000
    0.176050    -0.180561    -1.817052     1.200000     1.000000
    1.190843     1.431055     0.823776     1.700000     1.000000
    0.764956     0.259235     1.286409     1.700000     1.000000
    0.599752     2.328066     0.965494     1.200000     1.000000
   -0.176050     0.180561     1.817052     1.200000     1.000000
    1.594875    -0.984626     1.150152     1.700000     1.000000
    2.156222    -1.113793     2.084526     1.200000     1.000000
    0.946262    -1.857408     1.063673     1.200000     1.000000
    2.468178     1.532445     0.116620     1.700000     1.000000
    2.867487     2.516684    -0.097237     1.200000     1.000000
    3.125716     0.440978    -0.270604     1.700000     1.000000
    4.058512     0.527829    -0.815709     1.200000     1.000000
    2.566903    -0.935493    -0.033026     1.700000     1.000000
    2.059865    -1.262257    -0.949209     1.200000     1.000000
    3.377104    -1.649532     0.126360     1.200000     1.000000
   -1.190843    -1.431055    -0.823776     1.700000     1.000000
   -0.599752    -2.328066    -0.965494     1.200000     1.000000
   -2.468178    -1.532445    -0.116620     1.700000     1.000000
   -2.867487    -2.516684     0.097237     1.200000     1.000000
   -1.594875     0.984626    -1.150152     1.700000     1.000000
   -0.946262     1.857408    -1.063673     1.200000     1.000000
   -2.156222     1.113793    -2.084526     1.200000     1.000000
   -2.566903     0.935493     0.033026     1.700000     1.000000
   -3.377104     1.649532    -0.126360     1.200000     1.000000
   -2.059865     1.262257     0.949209     1.200000     1.000000

--link1--
%chk=meso-TS_61_2_xp-0975.chk
%nproc=24
%mem=48GB
#p uwb97xd guess=mix def2tzvp 
# scrf=(iefpcm,solvent=Cyclohexane,read) nosym guess=only pop=none 

endo-2
xp-pcm for eta=3

0 1
  6  -3.125716  -0.440978   0.270604 
  6  -0.764956  -0.259235  -1.286409 
  1  -4.058512  -0.527829   0.815709 
  1   0.176050  -0.180561  -1.817052 
  6   1.190843   1.431055   0.823776 
  6   0.764956   0.259235   1.286409 
  1   0.599752   2.328066   0.965494 
  1  -0.176050   0.180561   1.817052 
  6   1.594875  -0.984626   1.150152 
  1   2.156222  -1.113793   2.084526 
  1   0.946262  -1.857408   1.063673 
  6   2.468178   1.532445   0.116620 
  1   2.867487   2.516684  -0.097237 
  6   3.125716   0.440978  -0.270604 
  1   4.058512   0.527829  -0.815709 
  6   2.566903  -0.935493  -0.033026 
  1   2.059865  -1.262257  -0.949209 
  1   3.377104  -1.649532   0.126360 
  6  -1.190843  -1.431055  -0.823776 
  1  -0.599752  -2.328066  -0.965494 
  6  -2.468178  -1.532445  -0.116620 
  1  -2.867487  -2.516684   0.097237 
  6  -1.594875   0.984626  -1.150152 
  1  -0.946262   1.857408  -1.063673 
  1  -2.156222   1.113793  -2.084526 
  6  -2.566903   0.935493   0.033026 
  1  -3.377104   1.649532  -0.126360 
  1  -2.059865   1.262257   0.949209 

qrep pcmdoc geomview  nodis nocav g03defaults tsare=0.075 
nsfe=28
NVESolv=36  SolvMW=84.1595   Rsolv=2.815 
eps=2.0165 RhoS=0.7781

   -3.125716    -0.440978     0.270604     1.700000     0.975000
   -0.764956    -0.259235    -1.286409     1.700000     0.975000
   -4.058512    -0.527829     0.815709     1.200000     0.975000
    0.176050    -0.180561    -1.817052     1.200000     0.975000
    1.190843     1.431055     0.823776     1.700000     0.975000
    0.764956     0.259235     1.286409     1.700000     0.975000
    0.599752     2.328066     0.965494     1.200000     0.975000
   -0.176050     0.180561     1.817052     1.200000     0.975000
    1.594875    -0.984626     1.150152     1.700000     0.975000
    2.156222    -1.113793     2.084526     1.200000     0.975000
    0.946262    -1.857408     1.063673     1.200000     0.975000
    2.468178     1.532445     0.116620     1.700000     0.975000
    2.867487     2.516684    -0.097237     1.200000     0.975000
    3.125716     0.440978    -0.270604     1.700000     0.975000
    4.058512     0.527829    -0.815709     1.200000     0.975000
    2.566903    -0.935493    -0.033026     1.700000     0.975000
    2.059865    -1.262257    -0.949209     1.200000     0.975000
    3.377104    -1.649532     0.126360     1.200000     0.975000
   -1.190843    -1.431055    -0.823776     1.700000     0.975000
   -0.599752    -2.328066    -0.965494     1.200000     0.975000
   -2.468178    -1.532445    -0.116620     1.700000     0.975000
   -2.867487    -2.516684     0.097237     1.200000     0.975000
   -1.594875     0.984626    -1.150152     1.700000     0.975000
   -0.946262     1.857408    -1.063673     1.200000     0.975000
   -2.156222     1.113793    -2.084526     1.200000     0.975000
   -2.566903     0.935493     0.033026     1.700000     0.975000
   -3.377104     1.649532    -0.126360     1.200000     0.975000
   -2.059865     1.262257     0.949209     1.200000     0.975000

--link1--
%chk=meso-TS_61_2_xp-095.chk
%nproc=24
%mem=48GB
#p uwb97xd guess=mix def2tzvp 
# scrf=(iefpcm,solvent=Cyclohexane,read) nosym guess=only pop=none 

endo-2
xp-pcm for eta=3

0 1
  6  -3.125716  -0.440978   0.270604 
  6  -0.764956  -0.259235  -1.286409 
  1  -4.058512  -0.527829   0.815709 
  1   0.176050  -0.180561  -1.817052 
  6   1.190843   1.431055   0.823776 
  6   0.764956   0.259235   1.286409 
  1   0.599752   2.328066   0.965494 
  1  -0.176050   0.180561   1.817052 
  6   1.594875  -0.984626   1.150152 
  1   2.156222  -1.113793   2.084526 
  1   0.946262  -1.857408   1.063673 
  6   2.468178   1.532445   0.116620 
  1   2.867487   2.516684  -0.097237 
  6   3.125716   0.440978  -0.270604 
  1   4.058512   0.527829  -0.815709 
  6   2.566903  -0.935493  -0.033026 
  1   2.059865  -1.262257  -0.949209 
  1   3.377104  -1.649532   0.126360 
  6  -1.190843  -1.431055  -0.823776 
  1  -0.599752  -2.328066  -0.965494 
  6  -2.468178  -1.532445  -0.116620 
  1  -2.867487  -2.516684   0.097237 
  6  -1.594875   0.984626  -1.150152 
  1  -0.946262   1.857408  -1.063673 
  1  -2.156222   1.113793  -2.084526 
  6  -2.566903   0.935493   0.033026 
  1  -3.377104   1.649532  -0.126360 
  1  -2.059865   1.262257   0.949209 

qrep pcmdoc geomview  nodis nocav g03defaults tsare=0.075 
nsfe=28
NVESolv=36  SolvMW=84.1595   Rsolv=2.815 
eps=2.0165 RhoS=0.7781

   -3.125716    -0.440978     0.270604     1.700000     0.950000
   -0.764956    -0.259235    -1.286409     1.700000     0.950000
   -4.058512    -0.527829     0.815709     1.200000     0.950000
    0.176050    -0.180561    -1.817052     1.200000     0.950000
    1.190843     1.431055     0.823776     1.700000     0.950000
    0.764956     0.259235     1.286409     1.700000     0.950000
    0.599752     2.328066     0.965494     1.200000     0.950000
   -0.176050     0.180561     1.817052     1.200000     0.950000
    1.594875    -0.984626     1.150152     1.700000     0.950000
    2.156222    -1.113793     2.084526     1.200000     0.950000
    0.946262    -1.857408     1.063673     1.200000     0.950000
    2.468178     1.532445     0.116620     1.700000     0.950000
    2.867487     2.516684    -0.097237     1.200000     0.950000
    3.125716     0.440978    -0.270604     1.700000     0.950000
    4.058512     0.527829    -0.815709     1.200000     0.950000
    2.566903    -0.935493    -0.033026     1.700000     0.950000
    2.059865    -1.262257    -0.949209     1.200000     0.950000
    3.377104    -1.649532     0.126360     1.200000     0.950000
   -1.190843    -1.431055    -0.823776     1.700000     0.950000
   -0.599752    -2.328066    -0.965494     1.200000     0.950000
   -2.468178    -1.532445    -0.116620     1.700000     0.950000
   -2.867487    -2.516684     0.097237     1.200000     0.950000
   -1.594875     0.984626    -1.150152     1.700000     0.950000
   -0.946262     1.857408    -1.063673     1.200000     0.950000
   -2.156222     1.113793    -2.084526     1.200000     0.950000
   -2.566903     0.935493     0.033026     1.700000     0.950000
   -3.377104     1.649532    -0.126360     1.200000     0.950000
   -2.059865     1.262257     0.949209     1.200000     0.950000

