%chk=meso-TS_79_2_xp-12.chk
%nproc=24
%mem=48GB
#p uwb97xd guess=mix def2tzvp 
# scrf=(iefpcm,solvent=Cyclohexane,read) nosym 6d 10f 

endo-2
xp-pcm for eta=3

0 1
  6  -3.115030  -0.438560   0.285445 
  6  -0.828832  -0.276745  -1.380600 
  1  -4.026619  -0.514692   0.866746 
  1   0.088953  -0.205930  -1.951950 
  6   1.236290   1.443298   0.887382 
  6   0.828832   0.276745   1.380600 
  1   0.652342   2.342795   1.043029 
  1  -0.088953   0.205930   1.951950 
  6   1.654704  -0.967003   1.216943 
  1   2.279712  -1.077701   2.112893 
  1   1.007187  -1.844793   1.185737 
  6   2.487931   1.536308   0.133650 
  1   2.889851   2.517413  -0.089428 
  6   3.115030   0.438560  -0.285445 
  1   4.026619   0.514692  -0.866746 
  6   2.540720  -0.928204  -0.030413 
  1   1.955227  -1.223717  -0.909655 
  1   3.339904  -1.666148   0.059554 
  6  -1.236290  -1.443298  -0.887382 
  1  -0.652342  -2.342795  -1.043029 
  6  -2.487931  -1.536308  -0.133650 
  1  -2.889851  -2.517413   0.089428 
  6  -1.654704   0.967003  -1.216943 
  1  -1.007187   1.844793  -1.185737 
  1  -2.279712   1.077701  -2.112893 
  6  -2.540720   0.928204   0.030413 
  1  -3.339904   1.666148  -0.059554 
  1  -1.955227   1.223717   0.909655 

qrep pcmdoc geomview  nodis nocav g03defaults tsare=0.075 
nsfe=28
NVESolv=36  SolvMW=84.1595   Rsolv=2.815 
eps=2.0165 RhoS=0.778099999999998

   -3.115030    -0.438560     0.285445     1.700000     1.200000
   -0.828832    -0.276745    -1.380600     1.700000     1.200000
   -4.026619    -0.514692     0.866746     1.200000     1.200000
    0.088953    -0.205930    -1.951950     1.200000     1.200000
    1.236290     1.443298     0.887382     1.700000     1.200000
    0.828832     0.276745     1.380600     1.700000     1.200000
    0.652342     2.342795     1.043029     1.200000     1.200000
   -0.088953     0.205930     1.951950     1.200000     1.200000
    1.654704    -0.967003     1.216943     1.700000     1.200000
    2.279712    -1.077701     2.112893     1.200000     1.200000
    1.007187    -1.844793     1.185737     1.200000     1.200000
    2.487931     1.536308     0.133650     1.700000     1.200000
    2.889851     2.517413    -0.089428     1.200000     1.200000
    3.115030     0.438560    -0.285445     1.700000     1.200000
    4.026619     0.514692    -0.866746     1.200000     1.200000
    2.540720    -0.928204    -0.030413     1.700000     1.200000
    1.955227    -1.223717    -0.909655     1.200000     1.200000
    3.339904    -1.666148     0.059554     1.200000     1.200000
   -1.236290    -1.443298    -0.887382     1.700000     1.200000
   -0.652342    -2.342795    -1.043029     1.200000     1.200000
   -2.487931    -1.536308    -0.133650     1.700000     1.200000
   -2.889851    -2.517413     0.089428     1.200000     1.200000
   -1.654704     0.967003    -1.216943     1.700000     1.200000
   -1.007187     1.844793    -1.185737     1.200000     1.200000
   -2.279712     1.077701    -2.112893     1.200000     1.200000
   -2.540720     0.928204     0.030413     1.700000     1.200000
   -3.339904     1.666148    -0.059554     1.200000     1.200000
   -1.955227     1.223717     0.909655     1.200000     1.200000

--link1--
%chk=meso-TS_79_2_xp-115.chk
%nproc=24
%mem=48GB
#p uwb97xd guess=mix def2tzvp 
# scrf=(iefpcm,solvent=Cyclohexane,read) nosym 6d 10f 

endo-2
xp-pcm for eta=3

0 1
  6  -3.115030  -0.438560   0.285445 
  6  -0.828832  -0.276745  -1.380600 
  1  -4.026619  -0.514692   0.866746 
  1   0.088953  -0.205930  -1.951950 
  6   1.236290   1.443298   0.887382 
  6   0.828832   0.276745   1.380600 
  1   0.652342   2.342795   1.043029 
  1  -0.088953   0.205930   1.951950 
  6   1.654704  -0.967003   1.216943 
  1   2.279712  -1.077701   2.112893 
  1   1.007187  -1.844793   1.185737 
  6   2.487931   1.536308   0.133650 
  1   2.889851   2.517413  -0.089428 
  6   3.115030   0.438560  -0.285445 
  1   4.026619   0.514692  -0.866746 
  6   2.540720  -0.928204  -0.030413 
  1   1.955227  -1.223717  -0.909655 
  1   3.339904  -1.666148   0.059554 
  6  -1.236290  -1.443298  -0.887382 
  1  -0.652342  -2.342795  -1.043029 
  6  -2.487931  -1.536308  -0.133650 
  1  -2.889851  -2.517413   0.089428 
  6  -1.654704   0.967003  -1.216943 
  1  -1.007187   1.844793  -1.185737 
  1  -2.279712   1.077701  -2.112893 
  6  -2.540720   0.928204   0.030413 
  1  -3.339904   1.666148  -0.059554 
  1  -1.955227   1.223717   0.909655 

qrep pcmdoc geomview  nodis nocav g03defaults tsare=0.075 
nsfe=28
NVESolv=36  SolvMW=84.1595   Rsolv=2.815 
eps=2.08074995319988 RhoS=0.87957140140931

   -3.115030    -0.438560     0.285445     1.700000     1.150000
   -0.828832    -0.276745    -1.380600     1.700000     1.150000
   -4.026619    -0.514692     0.866746     1.200000     1.150000
    0.088953    -0.205930    -1.951950     1.200000     1.150000
    1.236290     1.443298     0.887382     1.700000     1.150000
    0.828832     0.276745     1.380600     1.700000     1.150000
    0.652342     2.342795     1.043029     1.200000     1.150000
   -0.088953     0.205930     1.951950     1.200000     1.150000
    1.654704    -0.967003     1.216943     1.700000     1.150000
    2.279712    -1.077701     2.112893     1.200000     1.150000
    1.007187    -1.844793     1.185737     1.200000     1.150000
    2.487931     1.536308     0.133650     1.700000     1.150000
    2.889851     2.517413    -0.089428     1.200000     1.150000
    3.115030     0.438560    -0.285445     1.700000     1.150000
    4.026619     0.514692    -0.866746     1.200000     1.150000
    2.540720    -0.928204    -0.030413     1.700000     1.150000
    1.955227    -1.223717    -0.909655     1.200000     1.150000
    3.339904    -1.666148     0.059554     1.200000     1.150000
   -1.236290    -1.443298    -0.887382     1.700000     1.150000
   -0.652342    -2.342795    -1.043029     1.200000     1.150000
   -2.487931    -1.536308    -0.133650     1.700000     1.150000
   -2.889851    -2.517413     0.089428     1.200000     1.150000
   -1.654704     0.967003    -1.216943     1.700000     1.150000
   -1.007187     1.844793    -1.185737     1.200000     1.150000
   -2.279712     1.077701    -2.112893     1.200000     1.150000
   -2.540720     0.928204     0.030413     1.700000     1.150000
   -3.339904     1.666148    -0.059554     1.200000     1.150000
   -1.955227     1.223717     0.909655     1.200000     1.150000

--link1--
%chk=meso-TS_79_2_xp-110.chk
%nproc=24
%mem=48GB
#p uwb97xd guess=mix def2tzvp 
# scrf=(iefpcm,solvent=Cyclohexane,read) nosym 6d 10f 

endo-2
xp-pcm for eta=3

0 1
  6  -3.115030  -0.438560   0.285445 
  6  -0.828832  -0.276745  -1.380600 
  1  -4.026619  -0.514692   0.866746 
  1   0.088953  -0.205930  -1.951950 
  6   1.236290   1.443298   0.887382 
  6   0.828832   0.276745   1.380600 
  1   0.652342   2.342795   1.043029 
  1  -0.088953   0.205930   1.951950 
  6   1.654704  -0.967003   1.216943 
  1   2.279712  -1.077701   2.112893 
  1   1.007187  -1.844793   1.185737 
  6   2.487931   1.536308   0.133650 
  1   2.889851   2.517413  -0.089428 
  6   3.115030   0.438560  -0.285445 
  1   4.026619   0.514692  -0.866746 
  6   2.540720  -0.928204  -0.030413 
  1   1.955227  -1.223717  -0.909655 
  1   3.339904  -1.666148   0.059554 
  6  -1.236290  -1.443298  -0.887382 
  1  -0.652342  -2.342795  -1.043029 
  6  -2.487931  -1.536308  -0.133650 
  1  -2.889851  -2.517413   0.089428 
  6  -1.654704   0.967003  -1.216943 
  1  -1.007187   1.844793  -1.185737 
  1  -2.279712   1.077701  -2.112893 
  6  -2.540720   0.928204   0.030413 
  1  -3.339904   1.666148  -0.059554 
  1  -1.955227   1.223717   0.909655 

qrep pcmdoc geomview  nodis nocav g03defaults tsare=0.075 
nsfe=28
NVESolv=36  SolvMW=84.1595   Rsolv=2.815 
eps=2.14797859684703 RhoS=0.992403372535132

   -3.115030    -0.438560     0.285445     1.700000     1.100000
   -0.828832    -0.276745    -1.380600     1.700000     1.100000
   -4.026619    -0.514692     0.866746     1.200000     1.100000
    0.088953    -0.205930    -1.951950     1.200000     1.100000
    1.236290     1.443298     0.887382     1.700000     1.100000
    0.828832     0.276745     1.380600     1.700000     1.100000
    0.652342     2.342795     1.043029     1.200000     1.100000
   -0.088953     0.205930     1.951950     1.200000     1.100000
    1.654704    -0.967003     1.216943     1.700000     1.100000
    2.279712    -1.077701     2.112893     1.200000     1.100000
    1.007187    -1.844793     1.185737     1.200000     1.100000
    2.487931     1.536308     0.133650     1.700000     1.100000
    2.889851     2.517413    -0.089428     1.200000     1.100000
    3.115030     0.438560    -0.285445     1.700000     1.100000
    4.026619     0.514692    -0.866746     1.200000     1.100000
    2.540720    -0.928204    -0.030413     1.700000     1.100000
    1.955227    -1.223717    -0.909655     1.200000     1.100000
    3.339904    -1.666148     0.059554     1.200000     1.100000
   -1.236290    -1.443298    -0.887382     1.700000     1.100000
   -0.652342    -2.342795    -1.043029     1.200000     1.100000
   -2.487931    -1.536308    -0.133650     1.700000     1.100000
   -2.889851    -2.517413     0.089428     1.200000     1.100000
   -1.654704     0.967003    -1.216943     1.700000     1.100000
   -1.007187     1.844793    -1.185737     1.200000     1.100000
   -2.279712     1.077701    -2.112893     1.200000     1.100000
   -2.540720     0.928204     0.030413     1.700000     1.100000
   -3.339904     1.666148    -0.059554     1.200000     1.100000
   -1.955227     1.223717     0.909655     1.200000     1.100000

--link1--
%chk=meso-TS_79_2_xp-105.chk
%nproc=24
%mem=48GB
#p uwb97xd guess=mix def2tzvp 
# scrf=(iefpcm,solvent=Cyclohexane,read) nosym 6d 10f 

endo-2
xp-pcm for eta=3

0 1
  6  -3.115030  -0.438560   0.285445 
  6  -0.828832  -0.276745  -1.380600 
  1  -4.026619  -0.514692   0.866746 
  1   0.088953  -0.205930  -1.951950 
  6   1.236290   1.443298   0.887382 
  6   0.828832   0.276745   1.380600 
  1   0.652342   2.342795   1.043029 
  1  -0.088953   0.205930   1.951950 
  6   1.654704  -0.967003   1.216943 
  1   2.279712  -1.077701   2.112893 
  1   1.007187  -1.844793   1.185737 
  6   2.487931   1.536308   0.133650 
  1   2.889851   2.517413  -0.089428 
  6   3.115030   0.438560  -0.285445 
  1   4.026619   0.514692  -0.866746 
  6   2.540720  -0.928204  -0.030413 
  1   1.955227  -1.223717  -0.909655 
  1   3.339904  -1.666148   0.059554 
  6  -1.236290  -1.443298  -0.887382 
  1  -0.652342  -2.342795  -1.043029 
  6  -2.487931  -1.536308  -0.133650 
  1  -2.889851  -2.517413   0.089428 
  6  -1.654704   0.967003  -1.216943 
  1  -1.007187   1.844793  -1.185737 
  1  -2.279712   1.077701  -2.112893 
  6  -2.540720   0.928204   0.030413 
  1  -3.339904   1.666148  -0.059554 
  1  -1.955227   1.223717   0.909655 

qrep pcmdoc geomview  nodis nocav g03defaults tsare=0.075 
nsfe=28
NVESolv=36  SolvMW=84.1595   Rsolv=2.815 
eps=2.22376880117094 RhoS=1.12776705486046

   -3.115030    -0.438560     0.285445     1.700000     1.050000
   -0.828832    -0.276745    -1.380600     1.700000     1.050000
   -4.026619    -0.514692     0.866746     1.200000     1.050000
    0.088953    -0.205930    -1.951950     1.200000     1.050000
    1.236290     1.443298     0.887382     1.700000     1.050000
    0.828832     0.276745     1.380600     1.700000     1.050000
    0.652342     2.342795     1.043029     1.200000     1.050000
   -0.088953     0.205930     1.951950     1.200000     1.050000
    1.654704    -0.967003     1.216943     1.700000     1.050000
    2.279712    -1.077701     2.112893     1.200000     1.050000
    1.007187    -1.844793     1.185737     1.200000     1.050000
    2.487931     1.536308     0.133650     1.700000     1.050000
    2.889851     2.517413    -0.089428     1.200000     1.050000
    3.115030     0.438560    -0.285445     1.700000     1.050000
    4.026619     0.514692    -0.866746     1.200000     1.050000
    2.540720    -0.928204    -0.030413     1.700000     1.050000
    1.955227    -1.223717    -0.909655     1.200000     1.050000
    3.339904    -1.666148     0.059554     1.200000     1.050000
   -1.236290    -1.443298    -0.887382     1.700000     1.050000
   -0.652342    -2.342795    -1.043029     1.200000     1.050000
   -2.487931    -1.536308    -0.133650     1.700000     1.050000
   -2.889851    -2.517413     0.089428     1.200000     1.050000
   -1.654704     0.967003    -1.216943     1.700000     1.050000
   -1.007187     1.844793    -1.185737     1.200000     1.050000
   -2.279712     1.077701    -2.112893     1.200000     1.050000
   -2.540720     0.928204     0.030413     1.700000     1.050000
   -3.339904     1.666148    -0.059554     1.200000     1.050000
   -1.955227     1.223717     0.909655     1.200000     1.050000

--link1--
%chk=meso-TS_79_2_xp-100.chk
%nproc=24
%mem=48GB
#p uwb97xd guess=mix def2tzvp 
# scrf=(iefpcm,solvent=Cyclohexane,read) nosym 6d 10f 

endo-2
xp-pcm for eta=3

0 1
  6  -3.115030  -0.438560   0.285445 
  6  -0.828832  -0.276745  -1.380600 
  1  -4.026619  -0.514692   0.866746 
  1   0.088953  -0.205930  -1.951950 
  6   1.236290   1.443298   0.887382 
  6   0.828832   0.276745   1.380600 
  1   0.652342   2.342795   1.043029 
  1  -0.088953   0.205930   1.951950 
  6   1.654704  -0.967003   1.216943 
  1   2.279712  -1.077701   2.112893 
  1   1.007187  -1.844793   1.185737 
  6   2.487931   1.536308   0.133650 
  1   2.889851   2.517413  -0.089428 
  6   3.115030   0.438560  -0.285445 
  1   4.026619   0.514692  -0.866746 
  6   2.540720  -0.928204  -0.030413 
  1   1.955227  -1.223717  -0.909655 
  1   3.339904  -1.666148   0.059554 
  6  -1.236290  -1.443298  -0.887382 
  1  -0.652342  -2.342795  -1.043029 
  6  -2.487931  -1.536308  -0.133650 
  1  -2.889851  -2.517413   0.089428 
  6  -1.654704   0.967003  -1.216943 
  1  -1.007187   1.844793  -1.185737 
  1  -2.279712   1.077701  -2.112893 
  6  -2.540720   0.928204   0.030413 
  1  -3.339904   1.666148  -0.059554 
  1  -1.955227   1.223717   0.909655 

qrep pcmdoc geomview  nodis nocav g03defaults tsare=0.075 
nsfe=28
NVESolv=36  SolvMW=84.1595   Rsolv=2.815 
eps=2.30480546666792 RhoS=1.28207131826017

   -3.115030    -0.438560     0.285445     1.700000     1.000000
   -0.828832    -0.276745    -1.380600     1.700000     1.000000
   -4.026619    -0.514692     0.866746     1.200000     1.000000
    0.088953    -0.205930    -1.951950     1.200000     1.000000
    1.236290     1.443298     0.887382     1.700000     1.000000
    0.828832     0.276745     1.380600     1.700000     1.000000
    0.652342     2.342795     1.043029     1.200000     1.000000
   -0.088953     0.205930     1.951950     1.200000     1.000000
    1.654704    -0.967003     1.216943     1.700000     1.000000
    2.279712    -1.077701     2.112893     1.200000     1.000000
    1.007187    -1.844793     1.185737     1.200000     1.000000
    2.487931     1.536308     0.133650     1.700000     1.000000
    2.889851     2.517413    -0.089428     1.200000     1.000000
    3.115030     0.438560    -0.285445     1.700000     1.000000
    4.026619     0.514692    -0.866746     1.200000     1.000000
    2.540720    -0.928204    -0.030413     1.700000     1.000000
    1.955227    -1.223717    -0.909655     1.200000     1.000000
    3.339904    -1.666148     0.059554     1.200000     1.000000
   -1.236290    -1.443298    -0.887382     1.700000     1.000000
   -0.652342    -2.342795    -1.043029     1.200000     1.000000
   -2.487931    -1.536308    -0.133650     1.700000     1.000000
   -2.889851    -2.517413     0.089428     1.200000     1.000000
   -1.654704     0.967003    -1.216943     1.700000     1.000000
   -1.007187     1.844793    -1.185737     1.200000     1.000000
   -2.279712     1.077701    -2.112893     1.200000     1.000000
   -2.540720     0.928204     0.030413     1.700000     1.000000
   -3.339904     1.666148    -0.059554     1.200000     1.000000
   -1.955227     1.223717     0.909655     1.200000     1.000000

--link1--
%chk=meso-TS_79_2_xp-0975.chk
%nproc=24
%mem=48GB
#p uwb97xd guess=mix def2tzvp 
# scrf=(iefpcm,solvent=Cyclohexane,read) nosym 6d 10f 

endo-2
xp-pcm for eta=3

0 1
  6  -3.115030  -0.438560   0.285445 
  6  -0.828832  -0.276745  -1.380600 
  1  -4.026619  -0.514692   0.866746 
  1   0.088953  -0.205930  -1.951950 
  6   1.236290   1.443298   0.887382 
  6   0.828832   0.276745   1.380600 
  1   0.652342   2.342795   1.043029 
  1  -0.088953   0.205930   1.951950 
  6   1.654704  -0.967003   1.216943 
  1   2.279712  -1.077701   2.112893 
  1   1.007187  -1.844793   1.185737 
  6   2.487931   1.536308   0.133650 
  1   2.889851   2.517413  -0.089428 
  6   3.115030   0.438560  -0.285445 
  1   4.026619   0.514692  -0.866746 
  6   2.540720  -0.928204  -0.030413 
  1   1.955227  -1.223717  -0.909655 
  1   3.339904  -1.666148   0.059554 
  6  -1.236290  -1.443298  -0.887382 
  1  -0.652342  -2.342795  -1.043029 
  6  -2.487931  -1.536308  -0.133650 
  1  -2.889851  -2.517413   0.089428 
  6  -1.654704   0.967003  -1.216943 
  1  -1.007187   1.844793  -1.185737 
  1  -2.279712   1.077701  -2.112893 
  6  -2.540720   0.928204   0.030413 
  1  -3.339904   1.666148  -0.059554 
  1  -1.955227   1.223717   0.909655 

qrep pcmdoc geomview  nodis nocav g03defaults tsare=0.075 
nsfe=28
NVESolv=36  SolvMW=84.1595   Rsolv=2.815 
eps=2.34745273026226 RhoS=1.36724935387803

   -3.115030    -0.438560     0.285445     1.700000     0.975000
   -0.828832    -0.276745    -1.380600     1.700000     0.975000
   -4.026619    -0.514692     0.866746     1.200000     0.975000
    0.088953    -0.205930    -1.951950     1.200000     0.975000
    1.236290     1.443298     0.887382     1.700000     0.975000
    0.828832     0.276745     1.380600     1.700000     0.975000
    0.652342     2.342795     1.043029     1.200000     0.975000
   -0.088953     0.205930     1.951950     1.200000     0.975000
    1.654704    -0.967003     1.216943     1.700000     0.975000
    2.279712    -1.077701     2.112893     1.200000     0.975000
    1.007187    -1.844793     1.185737     1.200000     0.975000
    2.487931     1.536308     0.133650     1.700000     0.975000
    2.889851     2.517413    -0.089428     1.200000     0.975000
    3.115030     0.438560    -0.285445     1.700000     0.975000
    4.026619     0.514692    -0.866746     1.200000     0.975000
    2.540720    -0.928204    -0.030413     1.700000     0.975000
    1.955227    -1.223717    -0.909655     1.200000     0.975000
    3.339904    -1.666148     0.059554     1.200000     0.975000
   -1.236290    -1.443298    -0.887382     1.700000     0.975000
   -0.652342    -2.342795    -1.043029     1.200000     0.975000
   -2.487931    -1.536308    -0.133650     1.700000     0.975000
   -2.889851    -2.517413     0.089428     1.200000     0.975000
   -1.654704     0.967003    -1.216943     1.700000     0.975000
   -1.007187     1.844793    -1.185737     1.200000     0.975000
   -2.279712     1.077701    -2.112893     1.200000     0.975000
   -2.540720     0.928204     0.030413     1.700000     0.975000
   -3.339904     1.666148    -0.059554     1.200000     0.975000
   -1.955227     1.223717     0.909655     1.200000     0.975000

--link1--
%chk=meso-TS_79_2_xp-095.chk
%nproc=24
%mem=48GB
#p uwb97xd guess=mix def2tzvp 
# scrf=(iefpcm,solvent=Cyclohexane,read) nosym 6d 10f 

endo-2
xp-pcm for eta=3

0 1
  6  -3.115030  -0.438560   0.285445 
  6  -0.828832  -0.276745  -1.380600 
  1  -4.026619  -0.514692   0.866746 
  1   0.088953  -0.205930  -1.951950 
  6   1.236290   1.443298   0.887382 
  6   0.828832   0.276745   1.380600 
  1   0.652342   2.342795   1.043029 
  1  -0.088953   0.205930   1.951950 
  6   1.654704  -0.967003   1.216943 
  1   2.279712  -1.077701   2.112893 
  1   1.007187  -1.844793   1.185737 
  6   2.487931   1.536308   0.133650 
  1   2.889851   2.517413  -0.089428 
  6   3.115030   0.438560  -0.285445 
  1   4.026619   0.514692  -0.866746 
  6   2.540720  -0.928204  -0.030413 
  1   1.955227  -1.223717  -0.909655 
  1   3.339904  -1.666148   0.059554 
  6  -1.236290  -1.443298  -0.887382 
  1  -0.652342  -2.342795  -1.043029 
  6  -2.487931  -1.536308  -0.133650 
  1  -2.889851  -2.517413   0.089428 
  6  -1.654704   0.967003  -1.216943 
  1  -1.007187   1.844793  -1.185737 
  1  -2.279712   1.077701  -2.112893 
  6  -2.540720   0.928204   0.030413 
  1  -3.339904   1.666148  -0.059554 
  1  -1.955227   1.223717   0.909655 

qrep pcmdoc geomview  nodis nocav g03defaults tsare=0.075 
nsfe=28
NVESolv=36  SolvMW=84.1595   Rsolv=2.815 
eps=2.39339884323873 RhoS=1.4620813611373

   -3.115030    -0.438560     0.285445     1.700000     0.950000
   -0.828832    -0.276745    -1.380600     1.700000     0.950000
   -4.026619    -0.514692     0.866746     1.200000     0.950000
    0.088953    -0.205930    -1.951950     1.200000     0.950000
    1.236290     1.443298     0.887382     1.700000     0.950000
    0.828832     0.276745     1.380600     1.700000     0.950000
    0.652342     2.342795     1.043029     1.200000     0.950000
   -0.088953     0.205930     1.951950     1.200000     0.950000
    1.654704    -0.967003     1.216943     1.700000     0.950000
    2.279712    -1.077701     2.112893     1.200000     0.950000
    1.007187    -1.844793     1.185737     1.200000     0.950000
    2.487931     1.536308     0.133650     1.700000     0.950000
    2.889851     2.517413    -0.089428     1.200000     0.950000
    3.115030     0.438560    -0.285445     1.700000     0.950000
    4.026619     0.514692    -0.866746     1.200000     0.950000
    2.540720    -0.928204    -0.030413     1.700000     0.950000
    1.955227    -1.223717    -0.909655     1.200000     0.950000
    3.339904    -1.666148     0.059554     1.200000     0.950000
   -1.236290    -1.443298    -0.887382     1.700000     0.950000
   -0.652342    -2.342795    -1.043029     1.200000     0.950000
   -2.487931    -1.536308    -0.133650     1.700000     0.950000
   -2.889851    -2.517413     0.089428     1.200000     0.950000
   -1.654704     0.967003    -1.216943     1.700000     0.950000
   -1.007187     1.844793    -1.185737     1.200000     0.950000
   -2.279712     1.077701    -2.112893     1.200000     0.950000
   -2.540720     0.928204     0.030413     1.700000     0.950000
   -3.339904     1.666148    -0.059554     1.200000     0.950000
   -1.955227     1.223717     0.909655     1.200000     0.950000

