%nproc=24
%mem=48GB
#p uwb97xd guess=mix def2tzvp 

endo-2

0 1
  6  -3.124169  -0.439278   0.250542 
  6  -0.643099  -0.229248  -1.098464 
  1  -4.085133  -0.545207   0.740603 
  1   0.327855  -0.136074  -1.566145 
  6   1.113831   1.415291   0.723545 
  6   0.643099   0.229248   1.098464 
  1   0.522800   2.313487   0.851925 
  1  -0.327855   0.136074   1.566145 
  6   1.500589  -1.001103   1.035326 
  1   1.981107  -1.091203   2.017731 
  1   0.886938  -1.893076   0.919682 
  6   2.432875   1.521421   0.106236 
  1   2.839463   2.508616  -0.078628 
  6   3.124169   0.439278  -0.250542 
  1   4.085133   0.545207  -0.740603 
  6   2.587635  -0.950883  -0.043832 
  1   2.208284  -1.328532  -1.001408 
  1   3.400285  -1.626015   0.232103 
  6  -1.113831  -1.415291  -0.723545 
  1  -0.522800  -2.313487  -0.851925 
  6  -2.432875  -1.521421  -0.106236 
  1  -2.839463  -2.508616   0.078628 
  6  -1.500589   1.001103  -1.035326 
  1  -0.886938   1.893076  -0.919682 
  1  -1.981107   1.091203  -2.017731 
  6  -2.587635   0.950883   0.043832 
  1  -3.400285   1.626015  -0.232103 
  1  -2.208284   1.328532   1.001408 

