%nproc=24
%mem=48GB
#p uwb97xd guess=mix def2tzvp 

endo-2

0 1
  6  -3.118978  -0.431679   0.247428 
  6  -0.498946  -0.160979  -0.842137 
  1  -4.084002  -0.548806   0.725908 
  1   0.353974  -0.115713  -1.511513 
  6   1.104740   1.419096   0.680914 
  6   0.498946   0.160979   0.842137 
  1   0.544380   2.322265   0.886395 
  1  -0.353974   0.115713   1.511513 
  6   1.462618  -0.999815   0.987483 
  1   1.898715  -0.937376   1.990350 
  1   0.929624  -1.949747   0.936184 
  6   2.406372   1.522548   0.118104 
  1   2.824451   2.509227  -0.045547 
  6   3.118978   0.431679  -0.247428 
  1   4.084002   0.548806  -0.725908 
  6   2.592276  -0.958579  -0.043389 
  1   2.248579  -1.357021  -1.006512 
  1   3.401237  -1.622533   0.271000 
  6  -1.104740  -1.419096  -0.680914 
  1  -0.544380  -2.322265  -0.886395 
  6  -2.406372  -1.522548  -0.118104 
  1  -2.824451  -2.509227   0.045547 
  6  -1.462618   0.999815  -0.987483 
  1  -0.929624   1.949747  -0.936184 
  1  -1.898715   0.937376  -1.990350 
  6  -2.592276   0.958579   0.043389 
  1  -3.401236   1.622533  -0.271000 
  1  -2.248578   1.357021   1.006512 

