%chk=meso-TS_46_2_xp-12.chk
%nproc=24
%mem=48GB
#p uwb97xd guess=mix def2tzvp 
# scrf=(iefpcm,solvent=Cyclohexane,read) nosym 6d 10f 

endo-2
xp-pcm for eta=3

0 1
  6  -3.127681  -0.441423   0.258958 
  6  -0.708381  -0.245534  -1.202422 
  1  -4.076548  -0.536846   0.774111 
  1   0.248962  -0.160472  -1.700991 
  6   1.152306   1.422704   0.772430 
  6   0.708381   0.245534   1.202422 
  1   0.558988   2.319273   0.905524 
  1  -0.248962   0.160472   1.700991 
  6   1.545018  -0.996200   1.092829 
  1   2.059657  -1.126856   2.053246 
  1   0.904290  -1.869997   0.974198 
  6   2.450083   1.528310   0.106435 
  1   2.850945   2.514335  -0.096069 
  6   3.127681   0.441423  -0.258958 
  1   4.076548   0.536846  -0.774111 
  6   2.579330  -0.941931  -0.037180 
  1   2.135763  -1.291670  -0.977567 
  1   3.392662  -1.637636   0.178291 
  6  -1.152306  -1.422704  -0.772430 
  1  -0.558988  -2.319273  -0.905524 
  6  -2.450083  -1.528310  -0.106435 
  1  -2.850945  -2.514335   0.096069 
  6  -1.545018   0.996200  -1.092829 
  1  -0.904290   1.869997  -0.974198 
  1  -2.059657   1.126856  -2.053246 
  6  -2.579330   0.941931   0.037180 
  1  -3.392662   1.637636  -0.178291 
  1  -2.135763   1.291670   0.977567 

qrep pcmdoc geomview  nodis nocav g03defaults tsare=0.075 
nsfe=28
NVESolv=36  SolvMW=84.1595   Rsolv=2.815 
eps=2.0165 RhoS=0.778099999999998

   -3.127681    -0.441423     0.258958     1.700000     1.200000
   -0.708381    -0.245534    -1.202422     1.700000     1.200000
   -4.076548    -0.536846     0.774111     1.200000     1.200000
    0.248962    -0.160472    -1.700991     1.200000     1.200000
    1.152306     1.422704     0.772430     1.700000     1.200000
    0.708381     0.245534     1.202422     1.700000     1.200000
    0.558988     2.319273     0.905524     1.200000     1.200000
   -0.248962     0.160472     1.700991     1.200000     1.200000
    1.545018    -0.996200     1.092829     1.700000     1.200000
    2.059657    -1.126856     2.053246     1.200000     1.200000
    0.904290    -1.869997     0.974198     1.200000     1.200000
    2.450083     1.528310     0.106435     1.700000     1.200000
    2.850945     2.514335    -0.096069     1.200000     1.200000
    3.127681     0.441423    -0.258958     1.700000     1.200000
    4.076548     0.536846    -0.774111     1.200000     1.200000
    2.579330    -0.941931    -0.037180     1.700000     1.200000
    2.135763    -1.291670    -0.977567     1.200000     1.200000
    3.392662    -1.637636     0.178291     1.200000     1.200000
   -1.152306    -1.422704    -0.772430     1.700000     1.200000
   -0.558988    -2.319273    -0.905524     1.200000     1.200000
   -2.450083    -1.528310    -0.106435     1.700000     1.200000
   -2.850945    -2.514335     0.096069     1.200000     1.200000
   -1.545018     0.996200    -1.092829     1.700000     1.200000
   -0.904290     1.869997    -0.974198     1.200000     1.200000
   -2.059657     1.126856    -2.053246     1.200000     1.200000
   -2.579330     0.941931     0.037180     1.700000     1.200000
   -3.392662     1.637636    -0.178291     1.200000     1.200000
   -2.135763     1.291670     0.977567     1.200000     1.200000

--link1--
%chk=meso-TS_46_2_xp-115.chk
%nproc=24
%mem=48GB
#p uwb97xd guess=mix def2tzvp 
# scrf=(iefpcm,solvent=Cyclohexane,read) nosym 6d 10f 

endo-2
xp-pcm for eta=3

0 1
  6  -3.127681  -0.441423   0.258958 
  6  -0.708381  -0.245534  -1.202422 
  1  -4.076548  -0.536846   0.774111 
  1   0.248962  -0.160472  -1.700991 
  6   1.152306   1.422704   0.772430 
  6   0.708381   0.245534   1.202422 
  1   0.558988   2.319273   0.905524 
  1  -0.248962   0.160472   1.700991 
  6   1.545018  -0.996200   1.092829 
  1   2.059657  -1.126856   2.053246 
  1   0.904290  -1.869997   0.974198 
  6   2.450083   1.528310   0.106435 
  1   2.850945   2.514335  -0.096069 
  6   3.127681   0.441423  -0.258958 
  1   4.076548   0.536846  -0.774111 
  6   2.579330  -0.941931  -0.037180 
  1   2.135763  -1.291670  -0.977567 
  1   3.392662  -1.637636   0.178291 
  6  -1.152306  -1.422704  -0.772430 
  1  -0.558988  -2.319273  -0.905524 
  6  -2.450083  -1.528310  -0.106435 
  1  -2.850945  -2.514335   0.096069 
  6  -1.545018   0.996200  -1.092829 
  1  -0.904290   1.869997  -0.974198 
  1  -2.059657   1.126856  -2.053246 
  6  -2.579330   0.941931   0.037180 
  1  -3.392662   1.637636  -0.178291 
  1  -2.135763   1.291670   0.977567 

qrep pcmdoc geomview  nodis nocav g03defaults tsare=0.075 
nsfe=28
NVESolv=36  SolvMW=84.1595   Rsolv=2.815 
eps=2.08074995319988 RhoS=0.87957140140931

   -3.127681    -0.441423     0.258958     1.700000     1.150000
   -0.708381    -0.245534    -1.202422     1.700000     1.150000
   -4.076548    -0.536846     0.774111     1.200000     1.150000
    0.248962    -0.160472    -1.700991     1.200000     1.150000
    1.152306     1.422704     0.772430     1.700000     1.150000
    0.708381     0.245534     1.202422     1.700000     1.150000
    0.558988     2.319273     0.905524     1.200000     1.150000
   -0.248962     0.160472     1.700991     1.200000     1.150000
    1.545018    -0.996200     1.092829     1.700000     1.150000
    2.059657    -1.126856     2.053246     1.200000     1.150000
    0.904290    -1.869997     0.974198     1.200000     1.150000
    2.450083     1.528310     0.106435     1.700000     1.150000
    2.850945     2.514335    -0.096069     1.200000     1.150000
    3.127681     0.441423    -0.258958     1.700000     1.150000
    4.076548     0.536846    -0.774111     1.200000     1.150000
    2.579330    -0.941931    -0.037180     1.700000     1.150000
    2.135763    -1.291670    -0.977567     1.200000     1.150000
    3.392662    -1.637636     0.178291     1.200000     1.150000
   -1.152306    -1.422704    -0.772430     1.700000     1.150000
   -0.558988    -2.319273    -0.905524     1.200000     1.150000
   -2.450083    -1.528310    -0.106435     1.700000     1.150000
   -2.850945    -2.514335     0.096069     1.200000     1.150000
   -1.545018     0.996200    -1.092829     1.700000     1.150000
   -0.904290     1.869997    -0.974198     1.200000     1.150000
   -2.059657     1.126856    -2.053246     1.200000     1.150000
   -2.579330     0.941931     0.037180     1.700000     1.150000
   -3.392662     1.637636    -0.178291     1.200000     1.150000
   -2.135763     1.291670     0.977567     1.200000     1.150000

--link1--
%chk=meso-TS_46_2_xp-110.chk
%nproc=24
%mem=48GB
#p uwb97xd guess=mix def2tzvp 
# scrf=(iefpcm,solvent=Cyclohexane,read) nosym 6d 10f 

endo-2
xp-pcm for eta=3

0 1
  6  -3.127681  -0.441423   0.258958 
  6  -0.708381  -0.245534  -1.202422 
  1  -4.076548  -0.536846   0.774111 
  1   0.248962  -0.160472  -1.700991 
  6   1.152306   1.422704   0.772430 
  6   0.708381   0.245534   1.202422 
  1   0.558988   2.319273   0.905524 
  1  -0.248962   0.160472   1.700991 
  6   1.545018  -0.996200   1.092829 
  1   2.059657  -1.126856   2.053246 
  1   0.904290  -1.869997   0.974198 
  6   2.450083   1.528310   0.106435 
  1   2.850945   2.514335  -0.096069 
  6   3.127681   0.441423  -0.258958 
  1   4.076548   0.536846  -0.774111 
  6   2.579330  -0.941931  -0.037180 
  1   2.135763  -1.291670  -0.977567 
  1   3.392662  -1.637636   0.178291 
  6  -1.152306  -1.422704  -0.772430 
  1  -0.558988  -2.319273  -0.905524 
  6  -2.450083  -1.528310  -0.106435 
  1  -2.850945  -2.514335   0.096069 
  6  -1.545018   0.996200  -1.092829 
  1  -0.904290   1.869997  -0.974198 
  1  -2.059657   1.126856  -2.053246 
  6  -2.579330   0.941931   0.037180 
  1  -3.392662   1.637636  -0.178291 
  1  -2.135763   1.291670   0.977567 

qrep pcmdoc geomview  nodis nocav g03defaults tsare=0.075 
nsfe=28
NVESolv=36  SolvMW=84.1595   Rsolv=2.815 
eps=2.14797859684703 RhoS=0.992403372535132

   -3.127681    -0.441423     0.258958     1.700000     1.100000
   -0.708381    -0.245534    -1.202422     1.700000     1.100000
   -4.076548    -0.536846     0.774111     1.200000     1.100000
    0.248962    -0.160472    -1.700991     1.200000     1.100000
    1.152306     1.422704     0.772430     1.700000     1.100000
    0.708381     0.245534     1.202422     1.700000     1.100000
    0.558988     2.319273     0.905524     1.200000     1.100000
   -0.248962     0.160472     1.700991     1.200000     1.100000
    1.545018    -0.996200     1.092829     1.700000     1.100000
    2.059657    -1.126856     2.053246     1.200000     1.100000
    0.904290    -1.869997     0.974198     1.200000     1.100000
    2.450083     1.528310     0.106435     1.700000     1.100000
    2.850945     2.514335    -0.096069     1.200000     1.100000
    3.127681     0.441423    -0.258958     1.700000     1.100000
    4.076548     0.536846    -0.774111     1.200000     1.100000
    2.579330    -0.941931    -0.037180     1.700000     1.100000
    2.135763    -1.291670    -0.977567     1.200000     1.100000
    3.392662    -1.637636     0.178291     1.200000     1.100000
   -1.152306    -1.422704    -0.772430     1.700000     1.100000
   -0.558988    -2.319273    -0.905524     1.200000     1.100000
   -2.450083    -1.528310    -0.106435     1.700000     1.100000
   -2.850945    -2.514335     0.096069     1.200000     1.100000
   -1.545018     0.996200    -1.092829     1.700000     1.100000
   -0.904290     1.869997    -0.974198     1.200000     1.100000
   -2.059657     1.126856    -2.053246     1.200000     1.100000
   -2.579330     0.941931     0.037180     1.700000     1.100000
   -3.392662     1.637636    -0.178291     1.200000     1.100000
   -2.135763     1.291670     0.977567     1.200000     1.100000

--link1--
%chk=meso-TS_46_2_xp-105.chk
%nproc=24
%mem=48GB
#p uwb97xd guess=mix def2tzvp 
# scrf=(iefpcm,solvent=Cyclohexane,read) nosym 6d 10f 

endo-2
xp-pcm for eta=3

0 1
  6  -3.127681  -0.441423   0.258958 
  6  -0.708381  -0.245534  -1.202422 
  1  -4.076548  -0.536846   0.774111 
  1   0.248962  -0.160472  -1.700991 
  6   1.152306   1.422704   0.772430 
  6   0.708381   0.245534   1.202422 
  1   0.558988   2.319273   0.905524 
  1  -0.248962   0.160472   1.700991 
  6   1.545018  -0.996200   1.092829 
  1   2.059657  -1.126856   2.053246 
  1   0.904290  -1.869997   0.974198 
  6   2.450083   1.528310   0.106435 
  1   2.850945   2.514335  -0.096069 
  6   3.127681   0.441423  -0.258958 
  1   4.076548   0.536846  -0.774111 
  6   2.579330  -0.941931  -0.037180 
  1   2.135763  -1.291670  -0.977567 
  1   3.392662  -1.637636   0.178291 
  6  -1.152306  -1.422704  -0.772430 
  1  -0.558988  -2.319273  -0.905524 
  6  -2.450083  -1.528310  -0.106435 
  1  -2.850945  -2.514335   0.096069 
  6  -1.545018   0.996200  -1.092829 
  1  -0.904290   1.869997  -0.974198 
  1  -2.059657   1.126856  -2.053246 
  6  -2.579330   0.941931   0.037180 
  1  -3.392662   1.637636  -0.178291 
  1  -2.135763   1.291670   0.977567 

qrep pcmdoc geomview  nodis nocav g03defaults tsare=0.075 
nsfe=28
NVESolv=36  SolvMW=84.1595   Rsolv=2.815 
eps=2.22376880117094 RhoS=1.12776705486046

   -3.127681    -0.441423     0.258958     1.700000     1.050000
   -0.708381    -0.245534    -1.202422     1.700000     1.050000
   -4.076548    -0.536846     0.774111     1.200000     1.050000
    0.248962    -0.160472    -1.700991     1.200000     1.050000
    1.152306     1.422704     0.772430     1.700000     1.050000
    0.708381     0.245534     1.202422     1.700000     1.050000
    0.558988     2.319273     0.905524     1.200000     1.050000
   -0.248962     0.160472     1.700991     1.200000     1.050000
    1.545018    -0.996200     1.092829     1.700000     1.050000
    2.059657    -1.126856     2.053246     1.200000     1.050000
    0.904290    -1.869997     0.974198     1.200000     1.050000
    2.450083     1.528310     0.106435     1.700000     1.050000
    2.850945     2.514335    -0.096069     1.200000     1.050000
    3.127681     0.441423    -0.258958     1.700000     1.050000
    4.076548     0.536846    -0.774111     1.200000     1.050000
    2.579330    -0.941931    -0.037180     1.700000     1.050000
    2.135763    -1.291670    -0.977567     1.200000     1.050000
    3.392662    -1.637636     0.178291     1.200000     1.050000
   -1.152306    -1.422704    -0.772430     1.700000     1.050000
   -0.558988    -2.319273    -0.905524     1.200000     1.050000
   -2.450083    -1.528310    -0.106435     1.700000     1.050000
   -2.850945    -2.514335     0.096069     1.200000     1.050000
   -1.545018     0.996200    -1.092829     1.700000     1.050000
   -0.904290     1.869997    -0.974198     1.200000     1.050000
   -2.059657     1.126856    -2.053246     1.200000     1.050000
   -2.579330     0.941931     0.037180     1.700000     1.050000
   -3.392662     1.637636    -0.178291     1.200000     1.050000
   -2.135763     1.291670     0.977567     1.200000     1.050000

--link1--
%chk=meso-TS_46_2_xp-100.chk
%nproc=24
%mem=48GB
#p uwb97xd guess=mix def2tzvp 
# scrf=(iefpcm,solvent=Cyclohexane,read) nosym 6d 10f 

endo-2
xp-pcm for eta=3

0 1
  6  -3.127681  -0.441423   0.258958 
  6  -0.708381  -0.245534  -1.202422 
  1  -4.076548  -0.536846   0.774111 
  1   0.248962  -0.160472  -1.700991 
  6   1.152306   1.422704   0.772430 
  6   0.708381   0.245534   1.202422 
  1   0.558988   2.319273   0.905524 
  1  -0.248962   0.160472   1.700991 
  6   1.545018  -0.996200   1.092829 
  1   2.059657  -1.126856   2.053246 
  1   0.904290  -1.869997   0.974198 
  6   2.450083   1.528310   0.106435 
  1   2.850945   2.514335  -0.096069 
  6   3.127681   0.441423  -0.258958 
  1   4.076548   0.536846  -0.774111 
  6   2.579330  -0.941931  -0.037180 
  1   2.135763  -1.291670  -0.977567 
  1   3.392662  -1.637636   0.178291 
  6  -1.152306  -1.422704  -0.772430 
  1  -0.558988  -2.319273  -0.905524 
  6  -2.450083  -1.528310  -0.106435 
  1  -2.850945  -2.514335   0.096069 
  6  -1.545018   0.996200  -1.092829 
  1  -0.904290   1.869997  -0.974198 
  1  -2.059657   1.126856  -2.053246 
  6  -2.579330   0.941931   0.037180 
  1  -3.392662   1.637636  -0.178291 
  1  -2.135763   1.291670   0.977567 

qrep pcmdoc geomview  nodis nocav g03defaults tsare=0.075 
nsfe=28
NVESolv=36  SolvMW=84.1595   Rsolv=2.815 
eps=2.30480546666792 RhoS=1.28207131826017

   -3.127681    -0.441423     0.258958     1.700000     1.000000
   -0.708381    -0.245534    -1.202422     1.700000     1.000000
   -4.076548    -0.536846     0.774111     1.200000     1.000000
    0.248962    -0.160472    -1.700991     1.200000     1.000000
    1.152306     1.422704     0.772430     1.700000     1.000000
    0.708381     0.245534     1.202422     1.700000     1.000000
    0.558988     2.319273     0.905524     1.200000     1.000000
   -0.248962     0.160472     1.700991     1.200000     1.000000
    1.545018    -0.996200     1.092829     1.700000     1.000000
    2.059657    -1.126856     2.053246     1.200000     1.000000
    0.904290    -1.869997     0.974198     1.200000     1.000000
    2.450083     1.528310     0.106435     1.700000     1.000000
    2.850945     2.514335    -0.096069     1.200000     1.000000
    3.127681     0.441423    -0.258958     1.700000     1.000000
    4.076548     0.536846    -0.774111     1.200000     1.000000
    2.579330    -0.941931    -0.037180     1.700000     1.000000
    2.135763    -1.291670    -0.977567     1.200000     1.000000
    3.392662    -1.637636     0.178291     1.200000     1.000000
   -1.152306    -1.422704    -0.772430     1.700000     1.000000
   -0.558988    -2.319273    -0.905524     1.200000     1.000000
   -2.450083    -1.528310    -0.106435     1.700000     1.000000
   -2.850945    -2.514335     0.096069     1.200000     1.000000
   -1.545018     0.996200    -1.092829     1.700000     1.000000
   -0.904290     1.869997    -0.974198     1.200000     1.000000
   -2.059657     1.126856    -2.053246     1.200000     1.000000
   -2.579330     0.941931     0.037180     1.700000     1.000000
   -3.392662     1.637636    -0.178291     1.200000     1.000000
   -2.135763     1.291670     0.977567     1.200000     1.000000

--link1--
%chk=meso-TS_46_2_xp-0975.chk
%nproc=24
%mem=48GB
#p uwb97xd guess=mix def2tzvp 
# scrf=(iefpcm,solvent=Cyclohexane,read) nosym 6d 10f 

endo-2
xp-pcm for eta=3

0 1
  6  -3.127681  -0.441423   0.258958 
  6  -0.708381  -0.245534  -1.202422 
  1  -4.076548  -0.536846   0.774111 
  1   0.248962  -0.160472  -1.700991 
  6   1.152306   1.422704   0.772430 
  6   0.708381   0.245534   1.202422 
  1   0.558988   2.319273   0.905524 
  1  -0.248962   0.160472   1.700991 
  6   1.545018  -0.996200   1.092829 
  1   2.059657  -1.126856   2.053246 
  1   0.904290  -1.869997   0.974198 
  6   2.450083   1.528310   0.106435 
  1   2.850945   2.514335  -0.096069 
  6   3.127681   0.441423  -0.258958 
  1   4.076548   0.536846  -0.774111 
  6   2.579330  -0.941931  -0.037180 
  1   2.135763  -1.291670  -0.977567 
  1   3.392662  -1.637636   0.178291 
  6  -1.152306  -1.422704  -0.772430 
  1  -0.558988  -2.319273  -0.905524 
  6  -2.450083  -1.528310  -0.106435 
  1  -2.850945  -2.514335   0.096069 
  6  -1.545018   0.996200  -1.092829 
  1  -0.904290   1.869997  -0.974198 
  1  -2.059657   1.126856  -2.053246 
  6  -2.579330   0.941931   0.037180 
  1  -3.392662   1.637636  -0.178291 
  1  -2.135763   1.291670   0.977567 

qrep pcmdoc geomview  nodis nocav g03defaults tsare=0.075 
nsfe=28
NVESolv=36  SolvMW=84.1595   Rsolv=2.815 
eps=2.34745273026226 RhoS=1.36724935387803

   -3.127681    -0.441423     0.258958     1.700000     0.975000
   -0.708381    -0.245534    -1.202422     1.700000     0.975000
   -4.076548    -0.536846     0.774111     1.200000     0.975000
    0.248962    -0.160472    -1.700991     1.200000     0.975000
    1.152306     1.422704     0.772430     1.700000     0.975000
    0.708381     0.245534     1.202422     1.700000     0.975000
    0.558988     2.319273     0.905524     1.200000     0.975000
   -0.248962     0.160472     1.700991     1.200000     0.975000
    1.545018    -0.996200     1.092829     1.700000     0.975000
    2.059657    -1.126856     2.053246     1.200000     0.975000
    0.904290    -1.869997     0.974198     1.200000     0.975000
    2.450083     1.528310     0.106435     1.700000     0.975000
    2.850945     2.514335    -0.096069     1.200000     0.975000
    3.127681     0.441423    -0.258958     1.700000     0.975000
    4.076548     0.536846    -0.774111     1.200000     0.975000
    2.579330    -0.941931    -0.037180     1.700000     0.975000
    2.135763    -1.291670    -0.977567     1.200000     0.975000
    3.392662    -1.637636     0.178291     1.200000     0.975000
   -1.152306    -1.422704    -0.772430     1.700000     0.975000
   -0.558988    -2.319273    -0.905524     1.200000     0.975000
   -2.450083    -1.528310    -0.106435     1.700000     0.975000
   -2.850945    -2.514335     0.096069     1.200000     0.975000
   -1.545018     0.996200    -1.092829     1.700000     0.975000
   -0.904290     1.869997    -0.974198     1.200000     0.975000
   -2.059657     1.126856    -2.053246     1.200000     0.975000
   -2.579330     0.941931     0.037180     1.700000     0.975000
   -3.392662     1.637636    -0.178291     1.200000     0.975000
   -2.135763     1.291670     0.977567     1.200000     0.975000

--link1--
%chk=meso-TS_46_2_xp-095.chk
%nproc=24
%mem=48GB
#p uwb97xd guess=mix def2tzvp 
# scrf=(iefpcm,solvent=Cyclohexane,read) nosym 6d 10f 

endo-2
xp-pcm for eta=3

0 1
  6  -3.127681  -0.441423   0.258958 
  6  -0.708381  -0.245534  -1.202422 
  1  -4.076548  -0.536846   0.774111 
  1   0.248962  -0.160472  -1.700991 
  6   1.152306   1.422704   0.772430 
  6   0.708381   0.245534   1.202422 
  1   0.558988   2.319273   0.905524 
  1  -0.248962   0.160472   1.700991 
  6   1.545018  -0.996200   1.092829 
  1   2.059657  -1.126856   2.053246 
  1   0.904290  -1.869997   0.974198 
  6   2.450083   1.528310   0.106435 
  1   2.850945   2.514335  -0.096069 
  6   3.127681   0.441423  -0.258958 
  1   4.076548   0.536846  -0.774111 
  6   2.579330  -0.941931  -0.037180 
  1   2.135763  -1.291670  -0.977567 
  1   3.392662  -1.637636   0.178291 
  6  -1.152306  -1.422704  -0.772430 
  1  -0.558988  -2.319273  -0.905524 
  6  -2.450083  -1.528310  -0.106435 
  1  -2.850945  -2.514335   0.096069 
  6  -1.545018   0.996200  -1.092829 
  1  -0.904290   1.869997  -0.974198 
  1  -2.059657   1.126856  -2.053246 
  6  -2.579330   0.941931   0.037180 
  1  -3.392662   1.637636  -0.178291 
  1  -2.135763   1.291670   0.977567 

qrep pcmdoc geomview  nodis nocav g03defaults tsare=0.075 
nsfe=28
NVESolv=36  SolvMW=84.1595   Rsolv=2.815 
eps=2.39339884323873 RhoS=1.4620813611373

   -3.127681    -0.441423     0.258958     1.700000     0.950000
   -0.708381    -0.245534    -1.202422     1.700000     0.950000
   -4.076548    -0.536846     0.774111     1.200000     0.950000
    0.248962    -0.160472    -1.700991     1.200000     0.950000
    1.152306     1.422704     0.772430     1.700000     0.950000
    0.708381     0.245534     1.202422     1.700000     0.950000
    0.558988     2.319273     0.905524     1.200000     0.950000
   -0.248962     0.160472     1.700991     1.200000     0.950000
    1.545018    -0.996200     1.092829     1.700000     0.950000
    2.059657    -1.126856     2.053246     1.200000     0.950000
    0.904290    -1.869997     0.974198     1.200000     0.950000
    2.450083     1.528310     0.106435     1.700000     0.950000
    2.850945     2.514335    -0.096069     1.200000     0.950000
    3.127681     0.441423    -0.258958     1.700000     0.950000
    4.076548     0.536846    -0.774111     1.200000     0.950000
    2.579330    -0.941931    -0.037180     1.700000     0.950000
    2.135763    -1.291670    -0.977567     1.200000     0.950000
    3.392662    -1.637636     0.178291     1.200000     0.950000
   -1.152306    -1.422704    -0.772430     1.700000     0.950000
   -0.558988    -2.319273    -0.905524     1.200000     0.950000
   -2.450083    -1.528310    -0.106435     1.700000     0.950000
   -2.850945    -2.514335     0.096069     1.200000     0.950000
   -1.545018     0.996200    -1.092829     1.700000     0.950000
   -0.904290     1.869997    -0.974198     1.200000     0.950000
   -2.059657     1.126856    -2.053246     1.200000     0.950000
   -2.579330     0.941931     0.037180     1.700000     0.950000
   -3.392662     1.637636    -0.178291     1.200000     0.950000
   -2.135763     1.291670     0.977567     1.200000     0.950000

