%nproc=24
%mem=48GB
#p uwb97xd guess=mix def2tzvp 

endo-2

0 1
  6  -3.140994  -0.425040   0.223816 
  6  -0.406297  -0.126897  -0.659080 
  1  -4.135653  -0.544691   0.635088 
  1   0.317409  -0.130657  -1.478814 
  6   1.108935   1.445531   0.607368 
  6   0.406297   0.126897   0.659080 
  1   0.573183   2.344629   0.884397 
  1  -0.317409   0.130657   1.478814 
  6   1.429977  -0.982064   0.932984 
  1   1.831758  -0.829324   1.937981 
  1   0.944143  -1.958831   0.930603 
  6   2.409595   1.535044   0.144587 
  1   2.868872   2.514015   0.060519 
  6   3.140994   0.425040  -0.223816 
  1   4.135653   0.544691  -0.635088 
  6   2.588982  -0.955630  -0.063327 
  1   2.260703  -1.337606  -1.039452 
  1   3.377886  -1.638473   0.263228 
  6  -1.108935  -1.445531  -0.607368 
  1  -0.573183  -2.344629  -0.884397 
  6  -2.409595  -1.535044  -0.144587 
  1  -2.868872  -2.514015  -0.060519 
  6  -1.429977   0.982064  -0.932984 
  1  -0.944143   1.958831  -0.930603 
  1  -1.831758   0.829324  -1.937981 
  6  -2.588982   0.955630   0.063327 
  1  -3.377886   1.638473  -0.263228 
  1  -2.260703   1.337606   1.039452 

