%chk=meso-TS_22_1_xp-12.chk
%nproc=24
%mem=48GB
#p uwb97xd guess=mix def2tzvp 
# scrf=(iefpcm,solvent=Cyclohexane,read) nosym guess=only pop=none 

endo-2
xp-pcm for eta=3

0 1
  6  -3.118545  -0.423500   0.248223 
  6  -0.402344  -0.116575  -0.672864 
  1  -4.093571  -0.546048   0.703566 
  1   0.333633  -0.108030  -1.481168 
  6   1.107682   1.434119   0.643785 
  6   0.402344   0.116575   0.672864 
  1   0.575901   2.330463   0.937322 
  1  -0.333633   0.108030   1.481168 
  6   1.433587  -0.989852   0.953879 
  1   1.831677  -0.829046   1.959162 
  1   0.953866  -1.970051   0.954345 
  6   2.392223   1.530795   0.133818 
  1   2.840546   2.512465   0.025049 
  6   3.118545   0.423500  -0.248223 
  1   4.093571   0.546048  -0.703566 
  6   2.590666  -0.961461  -0.045609 
  1   2.263468  -1.371998  -1.010466 
  1   3.394447  -1.622447   0.290265 
  6  -1.107682  -1.434119  -0.643785 
  1  -0.575901  -2.330463  -0.937322 
  6  -2.392223  -1.530795  -0.133818 
  1  -2.840546  -2.512465  -0.025049 
  6  -1.433587   0.989852  -0.953879 
  1  -0.953866   1.970051  -0.954345 
  1  -1.831677   0.829046  -1.959162 
  6  -2.590666   0.961461   0.045609 
  1  -3.394447   1.622447  -0.290265 
  1  -2.263468   1.371998   1.010466 

qrep pcmdoc geomview  nodis nocav g03defaults tsare=0.075 
nsfe=28
NVESolv=36  SolvMW=84.1595   Rsolv=2.815 
eps=2.0165 RhoS=0.7781

   -3.118545    -0.423500     0.248223     1.700000     1.200000
   -0.402344    -0.116575    -0.672864     1.700000     1.200000
   -4.093571    -0.546048     0.703566     1.200000     1.200000
    0.333633    -0.108030    -1.481168     1.200000     1.200000
    1.107682     1.434119     0.643785     1.700000     1.200000
    0.402344     0.116575     0.672864     1.700000     1.200000
    0.575901     2.330463     0.937322     1.200000     1.200000
   -0.333633     0.108030     1.481168     1.200000     1.200000
    1.433587    -0.989852     0.953879     1.700000     1.200000
    1.831677    -0.829046     1.959162     1.200000     1.200000
    0.953866    -1.970051     0.954345     1.200000     1.200000
    2.392223     1.530795     0.133818     1.700000     1.200000
    2.840546     2.512465     0.025049     1.200000     1.200000
    3.118545     0.423500    -0.248223     1.700000     1.200000
    4.093571     0.546048    -0.703566     1.200000     1.200000
    2.590666    -0.961461    -0.045609     1.700000     1.200000
    2.263468    -1.371998    -1.010466     1.200000     1.200000
    3.394447    -1.622447     0.290265     1.200000     1.200000
   -1.107682    -1.434119    -0.643785     1.700000     1.200000
   -0.575901    -2.330463    -0.937322     1.200000     1.200000
   -2.392223    -1.530795    -0.133818     1.700000     1.200000
   -2.840546    -2.512465    -0.025049     1.200000     1.200000
   -1.433587     0.989852    -0.953879     1.700000     1.200000
   -0.953866     1.970051    -0.954345     1.200000     1.200000
   -1.831677     0.829046    -1.959162     1.200000     1.200000
   -2.590666     0.961461     0.045609     1.700000     1.200000
   -3.394447     1.622447    -0.290265     1.200000     1.200000
   -2.263468     1.371998     1.010466     1.200000     1.200000

--link1--
%chk=meso-TS_22_1_xp-115.chk
%nproc=24
%mem=48GB
#p uwb97xd guess=mix def2tzvp 
# scrf=(iefpcm,solvent=Cyclohexane,read) nosym guess=only pop=none 

endo-2
xp-pcm for eta=3

0 1
  6  -3.118545  -0.423500   0.248223 
  6  -0.402344  -0.116575  -0.672864 
  1  -4.093571  -0.546048   0.703566 
  1   0.333633  -0.108030  -1.481168 
  6   1.107682   1.434119   0.643785 
  6   0.402344   0.116575   0.672864 
  1   0.575901   2.330463   0.937322 
  1  -0.333633   0.108030   1.481168 
  6   1.433587  -0.989852   0.953879 
  1   1.831677  -0.829046   1.959162 
  1   0.953866  -1.970051   0.954345 
  6   2.392223   1.530795   0.133818 
  1   2.840546   2.512465   0.025049 
  6   3.118545   0.423500  -0.248223 
  1   4.093571   0.546048  -0.703566 
  6   2.590666  -0.961461  -0.045609 
  1   2.263468  -1.371998  -1.010466 
  1   3.394447  -1.622447   0.290265 
  6  -1.107682  -1.434119  -0.643785 
  1  -0.575901  -2.330463  -0.937322 
  6  -2.392223  -1.530795  -0.133818 
  1  -2.840546  -2.512465  -0.025049 
  6  -1.433587   0.989852  -0.953879 
  1  -0.953866   1.970051  -0.954345 
  1  -1.831677   0.829046  -1.959162 
  6  -2.590666   0.961461   0.045609 
  1  -3.394447   1.622447  -0.290265 
  1  -2.263468   1.371998   1.010466 

qrep pcmdoc geomview  nodis nocav g03defaults tsare=0.075 
nsfe=28
NVESolv=36  SolvMW=84.1595   Rsolv=2.815 
eps=2.0165 RhoS=0.7781

   -3.118545    -0.423500     0.248223     1.700000     1.150000
   -0.402344    -0.116575    -0.672864     1.700000     1.150000
   -4.093571    -0.546048     0.703566     1.200000     1.150000
    0.333633    -0.108030    -1.481168     1.200000     1.150000
    1.107682     1.434119     0.643785     1.700000     1.150000
    0.402344     0.116575     0.672864     1.700000     1.150000
    0.575901     2.330463     0.937322     1.200000     1.150000
   -0.333633     0.108030     1.481168     1.200000     1.150000
    1.433587    -0.989852     0.953879     1.700000     1.150000
    1.831677    -0.829046     1.959162     1.200000     1.150000
    0.953866    -1.970051     0.954345     1.200000     1.150000
    2.392223     1.530795     0.133818     1.700000     1.150000
    2.840546     2.512465     0.025049     1.200000     1.150000
    3.118545     0.423500    -0.248223     1.700000     1.150000
    4.093571     0.546048    -0.703566     1.200000     1.150000
    2.590666    -0.961461    -0.045609     1.700000     1.150000
    2.263468    -1.371998    -1.010466     1.200000     1.150000
    3.394447    -1.622447     0.290265     1.200000     1.150000
   -1.107682    -1.434119    -0.643785     1.700000     1.150000
   -0.575901    -2.330463    -0.937322     1.200000     1.150000
   -2.392223    -1.530795    -0.133818     1.700000     1.150000
   -2.840546    -2.512465    -0.025049     1.200000     1.150000
   -1.433587     0.989852    -0.953879     1.700000     1.150000
   -0.953866     1.970051    -0.954345     1.200000     1.150000
   -1.831677     0.829046    -1.959162     1.200000     1.150000
   -2.590666     0.961461     0.045609     1.700000     1.150000
   -3.394447     1.622447    -0.290265     1.200000     1.150000
   -2.263468     1.371998     1.010466     1.200000     1.150000

--link1--
%chk=meso-TS_22_1_xp-110.chk
%nproc=24
%mem=48GB
#p uwb97xd guess=mix def2tzvp 
# scrf=(iefpcm,solvent=Cyclohexane,read) nosym guess=only pop=none 

endo-2
xp-pcm for eta=3

0 1
  6  -3.118545  -0.423500   0.248223 
  6  -0.402344  -0.116575  -0.672864 
  1  -4.093571  -0.546048   0.703566 
  1   0.333633  -0.108030  -1.481168 
  6   1.107682   1.434119   0.643785 
  6   0.402344   0.116575   0.672864 
  1   0.575901   2.330463   0.937322 
  1  -0.333633   0.108030   1.481168 
  6   1.433587  -0.989852   0.953879 
  1   1.831677  -0.829046   1.959162 
  1   0.953866  -1.970051   0.954345 
  6   2.392223   1.530795   0.133818 
  1   2.840546   2.512465   0.025049 
  6   3.118545   0.423500  -0.248223 
  1   4.093571   0.546048  -0.703566 
  6   2.590666  -0.961461  -0.045609 
  1   2.263468  -1.371998  -1.010466 
  1   3.394447  -1.622447   0.290265 
  6  -1.107682  -1.434119  -0.643785 
  1  -0.575901  -2.330463  -0.937322 
  6  -2.392223  -1.530795  -0.133818 
  1  -2.840546  -2.512465  -0.025049 
  6  -1.433587   0.989852  -0.953879 
  1  -0.953866   1.970051  -0.954345 
  1  -1.831677   0.829046  -1.959162 
  6  -2.590666   0.961461   0.045609 
  1  -3.394447   1.622447  -0.290265 
  1  -2.263468   1.371998   1.010466 

qrep pcmdoc geomview  nodis nocav g03defaults tsare=0.075 
nsfe=28
NVESolv=36  SolvMW=84.1595   Rsolv=2.815 
eps=2.0165 RhoS=0.7781

   -3.118545    -0.423500     0.248223     1.700000     1.100000
   -0.402344    -0.116575    -0.672864     1.700000     1.100000
   -4.093571    -0.546048     0.703566     1.200000     1.100000
    0.333633    -0.108030    -1.481168     1.200000     1.100000
    1.107682     1.434119     0.643785     1.700000     1.100000
    0.402344     0.116575     0.672864     1.700000     1.100000
    0.575901     2.330463     0.937322     1.200000     1.100000
   -0.333633     0.108030     1.481168     1.200000     1.100000
    1.433587    -0.989852     0.953879     1.700000     1.100000
    1.831677    -0.829046     1.959162     1.200000     1.100000
    0.953866    -1.970051     0.954345     1.200000     1.100000
    2.392223     1.530795     0.133818     1.700000     1.100000
    2.840546     2.512465     0.025049     1.200000     1.100000
    3.118545     0.423500    -0.248223     1.700000     1.100000
    4.093571     0.546048    -0.703566     1.200000     1.100000
    2.590666    -0.961461    -0.045609     1.700000     1.100000
    2.263468    -1.371998    -1.010466     1.200000     1.100000
    3.394447    -1.622447     0.290265     1.200000     1.100000
   -1.107682    -1.434119    -0.643785     1.700000     1.100000
   -0.575901    -2.330463    -0.937322     1.200000     1.100000
   -2.392223    -1.530795    -0.133818     1.700000     1.100000
   -2.840546    -2.512465    -0.025049     1.200000     1.100000
   -1.433587     0.989852    -0.953879     1.700000     1.100000
   -0.953866     1.970051    -0.954345     1.200000     1.100000
   -1.831677     0.829046    -1.959162     1.200000     1.100000
   -2.590666     0.961461     0.045609     1.700000     1.100000
   -3.394447     1.622447    -0.290265     1.200000     1.100000
   -2.263468     1.371998     1.010466     1.200000     1.100000

--link1--
%chk=meso-TS_22_1_xp-105.chk
%nproc=24
%mem=48GB
#p uwb97xd guess=mix def2tzvp 
# scrf=(iefpcm,solvent=Cyclohexane,read) nosym guess=only pop=none 

endo-2
xp-pcm for eta=3

0 1
  6  -3.118545  -0.423500   0.248223 
  6  -0.402344  -0.116575  -0.672864 
  1  -4.093571  -0.546048   0.703566 
  1   0.333633  -0.108030  -1.481168 
  6   1.107682   1.434119   0.643785 
  6   0.402344   0.116575   0.672864 
  1   0.575901   2.330463   0.937322 
  1  -0.333633   0.108030   1.481168 
  6   1.433587  -0.989852   0.953879 
  1   1.831677  -0.829046   1.959162 
  1   0.953866  -1.970051   0.954345 
  6   2.392223   1.530795   0.133818 
  1   2.840546   2.512465   0.025049 
  6   3.118545   0.423500  -0.248223 
  1   4.093571   0.546048  -0.703566 
  6   2.590666  -0.961461  -0.045609 
  1   2.263468  -1.371998  -1.010466 
  1   3.394447  -1.622447   0.290265 
  6  -1.107682  -1.434119  -0.643785 
  1  -0.575901  -2.330463  -0.937322 
  6  -2.392223  -1.530795  -0.133818 
  1  -2.840546  -2.512465  -0.025049 
  6  -1.433587   0.989852  -0.953879 
  1  -0.953866   1.970051  -0.954345 
  1  -1.831677   0.829046  -1.959162 
  6  -2.590666   0.961461   0.045609 
  1  -3.394447   1.622447  -0.290265 
  1  -2.263468   1.371998   1.010466 

qrep pcmdoc geomview  nodis nocav g03defaults tsare=0.075 
nsfe=28
NVESolv=36  SolvMW=84.1595   Rsolv=2.815 
eps=2.0165 RhoS=0.7781

   -3.118545    -0.423500     0.248223     1.700000     1.050000
   -0.402344    -0.116575    -0.672864     1.700000     1.050000
   -4.093571    -0.546048     0.703566     1.200000     1.050000
    0.333633    -0.108030    -1.481168     1.200000     1.050000
    1.107682     1.434119     0.643785     1.700000     1.050000
    0.402344     0.116575     0.672864     1.700000     1.050000
    0.575901     2.330463     0.937322     1.200000     1.050000
   -0.333633     0.108030     1.481168     1.200000     1.050000
    1.433587    -0.989852     0.953879     1.700000     1.050000
    1.831677    -0.829046     1.959162     1.200000     1.050000
    0.953866    -1.970051     0.954345     1.200000     1.050000
    2.392223     1.530795     0.133818     1.700000     1.050000
    2.840546     2.512465     0.025049     1.200000     1.050000
    3.118545     0.423500    -0.248223     1.700000     1.050000
    4.093571     0.546048    -0.703566     1.200000     1.050000
    2.590666    -0.961461    -0.045609     1.700000     1.050000
    2.263468    -1.371998    -1.010466     1.200000     1.050000
    3.394447    -1.622447     0.290265     1.200000     1.050000
   -1.107682    -1.434119    -0.643785     1.700000     1.050000
   -0.575901    -2.330463    -0.937322     1.200000     1.050000
   -2.392223    -1.530795    -0.133818     1.700000     1.050000
   -2.840546    -2.512465    -0.025049     1.200000     1.050000
   -1.433587     0.989852    -0.953879     1.700000     1.050000
   -0.953866     1.970051    -0.954345     1.200000     1.050000
   -1.831677     0.829046    -1.959162     1.200000     1.050000
   -2.590666     0.961461     0.045609     1.700000     1.050000
   -3.394447     1.622447    -0.290265     1.200000     1.050000
   -2.263468     1.371998     1.010466     1.200000     1.050000

--link1--
%chk=meso-TS_22_1_xp-100.chk
%nproc=24
%mem=48GB
#p uwb97xd guess=mix def2tzvp 
# scrf=(iefpcm,solvent=Cyclohexane,read) nosym guess=only pop=none 

endo-2
xp-pcm for eta=3

0 1
  6  -3.118545  -0.423500   0.248223 
  6  -0.402344  -0.116575  -0.672864 
  1  -4.093571  -0.546048   0.703566 
  1   0.333633  -0.108030  -1.481168 
  6   1.107682   1.434119   0.643785 
  6   0.402344   0.116575   0.672864 
  1   0.575901   2.330463   0.937322 
  1  -0.333633   0.108030   1.481168 
  6   1.433587  -0.989852   0.953879 
  1   1.831677  -0.829046   1.959162 
  1   0.953866  -1.970051   0.954345 
  6   2.392223   1.530795   0.133818 
  1   2.840546   2.512465   0.025049 
  6   3.118545   0.423500  -0.248223 
  1   4.093571   0.546048  -0.703566 
  6   2.590666  -0.961461  -0.045609 
  1   2.263468  -1.371998  -1.010466 
  1   3.394447  -1.622447   0.290265 
  6  -1.107682  -1.434119  -0.643785 
  1  -0.575901  -2.330463  -0.937322 
  6  -2.392223  -1.530795  -0.133818 
  1  -2.840546  -2.512465  -0.025049 
  6  -1.433587   0.989852  -0.953879 
  1  -0.953866   1.970051  -0.954345 
  1  -1.831677   0.829046  -1.959162 
  6  -2.590666   0.961461   0.045609 
  1  -3.394447   1.622447  -0.290265 
  1  -2.263468   1.371998   1.010466 

qrep pcmdoc geomview  nodis nocav g03defaults tsare=0.075 
nsfe=28
NVESolv=36  SolvMW=84.1595   Rsolv=2.815 
eps=2.0165 RhoS=0.7781

   -3.118545    -0.423500     0.248223     1.700000     1.000000
   -0.402344    -0.116575    -0.672864     1.700000     1.000000
   -4.093571    -0.546048     0.703566     1.200000     1.000000
    0.333633    -0.108030    -1.481168     1.200000     1.000000
    1.107682     1.434119     0.643785     1.700000     1.000000
    0.402344     0.116575     0.672864     1.700000     1.000000
    0.575901     2.330463     0.937322     1.200000     1.000000
   -0.333633     0.108030     1.481168     1.200000     1.000000
    1.433587    -0.989852     0.953879     1.700000     1.000000
    1.831677    -0.829046     1.959162     1.200000     1.000000
    0.953866    -1.970051     0.954345     1.200000     1.000000
    2.392223     1.530795     0.133818     1.700000     1.000000
    2.840546     2.512465     0.025049     1.200000     1.000000
    3.118545     0.423500    -0.248223     1.700000     1.000000
    4.093571     0.546048    -0.703566     1.200000     1.000000
    2.590666    -0.961461    -0.045609     1.700000     1.000000
    2.263468    -1.371998    -1.010466     1.200000     1.000000
    3.394447    -1.622447     0.290265     1.200000     1.000000
   -1.107682    -1.434119    -0.643785     1.700000     1.000000
   -0.575901    -2.330463    -0.937322     1.200000     1.000000
   -2.392223    -1.530795    -0.133818     1.700000     1.000000
   -2.840546    -2.512465    -0.025049     1.200000     1.000000
   -1.433587     0.989852    -0.953879     1.700000     1.000000
   -0.953866     1.970051    -0.954345     1.200000     1.000000
   -1.831677     0.829046    -1.959162     1.200000     1.000000
   -2.590666     0.961461     0.045609     1.700000     1.000000
   -3.394447     1.622447    -0.290265     1.200000     1.000000
   -2.263468     1.371998     1.010466     1.200000     1.000000

--link1--
%chk=meso-TS_22_1_xp-0975.chk
%nproc=24
%mem=48GB
#p uwb97xd guess=mix def2tzvp 
# scrf=(iefpcm,solvent=Cyclohexane,read) nosym guess=only pop=none 

endo-2
xp-pcm for eta=3

0 1
  6  -3.118545  -0.423500   0.248223 
  6  -0.402344  -0.116575  -0.672864 
  1  -4.093571  -0.546048   0.703566 
  1   0.333633  -0.108030  -1.481168 
  6   1.107682   1.434119   0.643785 
  6   0.402344   0.116575   0.672864 
  1   0.575901   2.330463   0.937322 
  1  -0.333633   0.108030   1.481168 
  6   1.433587  -0.989852   0.953879 
  1   1.831677  -0.829046   1.959162 
  1   0.953866  -1.970051   0.954345 
  6   2.392223   1.530795   0.133818 
  1   2.840546   2.512465   0.025049 
  6   3.118545   0.423500  -0.248223 
  1   4.093571   0.546048  -0.703566 
  6   2.590666  -0.961461  -0.045609 
  1   2.263468  -1.371998  -1.010466 
  1   3.394447  -1.622447   0.290265 
  6  -1.107682  -1.434119  -0.643785 
  1  -0.575901  -2.330463  -0.937322 
  6  -2.392223  -1.530795  -0.133818 
  1  -2.840546  -2.512465  -0.025049 
  6  -1.433587   0.989852  -0.953879 
  1  -0.953866   1.970051  -0.954345 
  1  -1.831677   0.829046  -1.959162 
  6  -2.590666   0.961461   0.045609 
  1  -3.394447   1.622447  -0.290265 
  1  -2.263468   1.371998   1.010466 

qrep pcmdoc geomview  nodis nocav g03defaults tsare=0.075 
nsfe=28
NVESolv=36  SolvMW=84.1595   Rsolv=2.815 
eps=2.0165 RhoS=0.7781

   -3.118545    -0.423500     0.248223     1.700000     0.975000
   -0.402344    -0.116575    -0.672864     1.700000     0.975000
   -4.093571    -0.546048     0.703566     1.200000     0.975000
    0.333633    -0.108030    -1.481168     1.200000     0.975000
    1.107682     1.434119     0.643785     1.700000     0.975000
    0.402344     0.116575     0.672864     1.700000     0.975000
    0.575901     2.330463     0.937322     1.200000     0.975000
   -0.333633     0.108030     1.481168     1.200000     0.975000
    1.433587    -0.989852     0.953879     1.700000     0.975000
    1.831677    -0.829046     1.959162     1.200000     0.975000
    0.953866    -1.970051     0.954345     1.200000     0.975000
    2.392223     1.530795     0.133818     1.700000     0.975000
    2.840546     2.512465     0.025049     1.200000     0.975000
    3.118545     0.423500    -0.248223     1.700000     0.975000
    4.093571     0.546048    -0.703566     1.200000     0.975000
    2.590666    -0.961461    -0.045609     1.700000     0.975000
    2.263468    -1.371998    -1.010466     1.200000     0.975000
    3.394447    -1.622447     0.290265     1.200000     0.975000
   -1.107682    -1.434119    -0.643785     1.700000     0.975000
   -0.575901    -2.330463    -0.937322     1.200000     0.975000
   -2.392223    -1.530795    -0.133818     1.700000     0.975000
   -2.840546    -2.512465    -0.025049     1.200000     0.975000
   -1.433587     0.989852    -0.953879     1.700000     0.975000
   -0.953866     1.970051    -0.954345     1.200000     0.975000
   -1.831677     0.829046    -1.959162     1.200000     0.975000
   -2.590666     0.961461     0.045609     1.700000     0.975000
   -3.394447     1.622447    -0.290265     1.200000     0.975000
   -2.263468     1.371998     1.010466     1.200000     0.975000

--link1--
%chk=meso-TS_22_1_xp-095.chk
%nproc=24
%mem=48GB
#p uwb97xd guess=mix def2tzvp 
# scrf=(iefpcm,solvent=Cyclohexane,read) nosym guess=only pop=none 

endo-2
xp-pcm for eta=3

0 1
  6  -3.118545  -0.423500   0.248223 
  6  -0.402344  -0.116575  -0.672864 
  1  -4.093571  -0.546048   0.703566 
  1   0.333633  -0.108030  -1.481168 
  6   1.107682   1.434119   0.643785 
  6   0.402344   0.116575   0.672864 
  1   0.575901   2.330463   0.937322 
  1  -0.333633   0.108030   1.481168 
  6   1.433587  -0.989852   0.953879 
  1   1.831677  -0.829046   1.959162 
  1   0.953866  -1.970051   0.954345 
  6   2.392223   1.530795   0.133818 
  1   2.840546   2.512465   0.025049 
  6   3.118545   0.423500  -0.248223 
  1   4.093571   0.546048  -0.703566 
  6   2.590666  -0.961461  -0.045609 
  1   2.263468  -1.371998  -1.010466 
  1   3.394447  -1.622447   0.290265 
  6  -1.107682  -1.434119  -0.643785 
  1  -0.575901  -2.330463  -0.937322 
  6  -2.392223  -1.530795  -0.133818 
  1  -2.840546  -2.512465  -0.025049 
  6  -1.433587   0.989852  -0.953879 
  1  -0.953866   1.970051  -0.954345 
  1  -1.831677   0.829046  -1.959162 
  6  -2.590666   0.961461   0.045609 
  1  -3.394447   1.622447  -0.290265 
  1  -2.263468   1.371998   1.010466 

qrep pcmdoc geomview  nodis nocav g03defaults tsare=0.075 
nsfe=28
NVESolv=36  SolvMW=84.1595   Rsolv=2.815 
eps=2.0165 RhoS=0.7781

   -3.118545    -0.423500     0.248223     1.700000     0.950000
   -0.402344    -0.116575    -0.672864     1.700000     0.950000
   -4.093571    -0.546048     0.703566     1.200000     0.950000
    0.333633    -0.108030    -1.481168     1.200000     0.950000
    1.107682     1.434119     0.643785     1.700000     0.950000
    0.402344     0.116575     0.672864     1.700000     0.950000
    0.575901     2.330463     0.937322     1.200000     0.950000
   -0.333633     0.108030     1.481168     1.200000     0.950000
    1.433587    -0.989852     0.953879     1.700000     0.950000
    1.831677    -0.829046     1.959162     1.200000     0.950000
    0.953866    -1.970051     0.954345     1.200000     0.950000
    2.392223     1.530795     0.133818     1.700000     0.950000
    2.840546     2.512465     0.025049     1.200000     0.950000
    3.118545     0.423500    -0.248223     1.700000     0.950000
    4.093571     0.546048    -0.703566     1.200000     0.950000
    2.590666    -0.961461    -0.045609     1.700000     0.950000
    2.263468    -1.371998    -1.010466     1.200000     0.950000
    3.394447    -1.622447     0.290265     1.200000     0.950000
   -1.107682    -1.434119    -0.643785     1.700000     0.950000
   -0.575901    -2.330463    -0.937322     1.200000     0.950000
   -2.392223    -1.530795    -0.133818     1.700000     0.950000
   -2.840546    -2.512465    -0.025049     1.200000     0.950000
   -1.433587     0.989852    -0.953879     1.700000     0.950000
   -0.953866     1.970051    -0.954345     1.200000     0.950000
   -1.831677     0.829046    -1.959162     1.200000     0.950000
   -2.590666     0.961461     0.045609     1.700000     0.950000
   -3.394447     1.622447    -0.290265     1.200000     0.950000
   -2.263468     1.371998     1.010466     1.200000     0.950000

