%nproc=24
%mem=48GB
#p uwb97xd guess=mix def2tzvp 

endo-2

0 1
  6  -3.117934  -0.436137   0.246784 
  6  -0.535696  -0.186299  -0.896780 
  1  -4.082501  -0.549798   0.727799 
  1   0.375035  -0.116755  -1.477463 
  6   1.092329   1.405870   0.686531 
  6   0.535696   0.186299   0.896780 
  1   0.530094   2.312211   0.873808 
  1  -0.375035   0.116755   1.477463 
  6   1.464574  -0.999813   0.987849 
  1   1.903832  -0.952555   1.991006 
  1   0.920067  -1.941809   0.929410 
  6   2.415211   1.517361   0.113871 
  1   2.826132   2.506548  -0.051259 
  6   3.117934   0.436137  -0.246784 
  1   4.082501   0.549798  -0.727799 
  6   2.591849  -0.958430  -0.044129 
  1   2.252305  -1.356502  -1.008402 
  1   3.400693  -1.620863   0.272097 
  6  -1.092329  -1.405870  -0.686531 
  1  -0.530094  -2.312211  -0.873808 
  6  -2.415211  -1.517361  -0.113871 
  1  -2.826132  -2.506548   0.051259 
  6  -1.464574   0.999814  -0.987849 
  1  -0.920067   1.941809  -0.929410 
  1  -1.903832   0.952555  -1.991006 
  6  -2.591849   0.958430   0.044128 
  1  -3.400693   1.620863  -0.272097 
  1  -2.252305   1.356502   1.008402 

