%chk=meso-TS_10_1_xp-12.chk
%nproc=24
%mem=48GB
#p uwb97xd guess=mix def2tzvp 
# scrf=(iefpcm,solvent=Cyclohexane,read) nosym guess=only pop=none 

endo-2
xp-pcm for eta=3

0 1
  6  -3.119734  -0.426930   0.248214 
  6  -0.452630  -0.134377  -0.766522 
  1  -4.086028  -0.547352   0.722629 
  1   0.332703  -0.111776  -1.521768 
  6   1.115166   1.430657   0.672626 
  6   0.452630   0.134377   0.766522 
  1   0.561998   2.331699   0.905522 
  1  -0.332703   0.111776   1.521768 
  6   1.457223  -0.998723   0.982555 
  1   1.882127  -0.904241   1.986471 
  1   0.944658  -1.961243   0.946268 
  6   2.397689   1.528359   0.123394 
  1   2.825979   2.512496  -0.031045 
  6   3.119734   0.426930  -0.248214 
  1   4.086028   0.547352  -0.722629 
  6   2.592798  -0.959299  -0.042549 
  1   2.246207  -1.358828  -1.004791 
  1   3.401603  -1.624548   0.271052 
  6  -1.115166  -1.430657  -0.672626 
  1  -0.561998  -2.331699  -0.905522 
  6  -2.397689  -1.528359  -0.123394 
  1  -2.825979  -2.512496   0.031045 
  6  -1.457223   0.998723  -0.982556 
  1  -0.944658   1.961243  -0.946268 
  1  -1.882127   0.904241  -1.986471 
  6  -2.592798   0.959299   0.042549 
  1  -3.401603   1.624548  -0.271052 
  1  -2.246207   1.358828   1.004791 

qrep pcmdoc geomview  nodis nocav g03defaults tsare=0.075 
nsfe=28
NVESolv=36  SolvMW=84.1595   Rsolv=2.815 
eps=2.0165 RhoS=0.7781

   -3.119734    -0.426930     0.248214     1.700000     1.200000
   -0.452630    -0.134377    -0.766522     1.700000     1.200000
   -4.086028    -0.547352     0.722629     1.200000     1.200000
    0.332703    -0.111776    -1.521768     1.200000     1.200000
    1.115166     1.430657     0.672626     1.700000     1.200000
    0.452630     0.134377     0.766522     1.700000     1.200000
    0.561998     2.331699     0.905522     1.200000     1.200000
   -0.332703     0.111776     1.521768     1.200000     1.200000
    1.457223    -0.998723     0.982555     1.700000     1.200000
    1.882127    -0.904241     1.986471     1.200000     1.200000
    0.944658    -1.961243     0.946268     1.200000     1.200000
    2.397689     1.528359     0.123394     1.700000     1.200000
    2.825979     2.512496    -0.031045     1.200000     1.200000
    3.119734     0.426930    -0.248214     1.700000     1.200000
    4.086028     0.547352    -0.722629     1.200000     1.200000
    2.592798    -0.959299    -0.042549     1.700000     1.200000
    2.246207    -1.358828    -1.004791     1.200000     1.200000
    3.401603    -1.624548     0.271052     1.200000     1.200000
   -1.115166    -1.430657    -0.672626     1.700000     1.200000
   -0.561998    -2.331699    -0.905522     1.200000     1.200000
   -2.397689    -1.528359    -0.123394     1.700000     1.200000
   -2.825979    -2.512496     0.031045     1.200000     1.200000
   -1.457223     0.998723    -0.982556     1.700000     1.200000
   -0.944658     1.961243    -0.946268     1.200000     1.200000
   -1.882127     0.904241    -1.986471     1.200000     1.200000
   -2.592798     0.959299     0.042549     1.700000     1.200000
   -3.401603     1.624548    -0.271052     1.200000     1.200000
   -2.246207     1.358828     1.004791     1.200000     1.200000

--link1--
%chk=meso-TS_10_1_xp-115.chk
%nproc=24
%mem=48GB
#p uwb97xd guess=mix def2tzvp 
# scrf=(iefpcm,solvent=Cyclohexane,read) nosym guess=only pop=none 

endo-2
xp-pcm for eta=3

0 1
  6  -3.119734  -0.426930   0.248214 
  6  -0.452630  -0.134377  -0.766522 
  1  -4.086028  -0.547352   0.722629 
  1   0.332703  -0.111776  -1.521768 
  6   1.115166   1.430657   0.672626 
  6   0.452630   0.134377   0.766522 
  1   0.561998   2.331699   0.905522 
  1  -0.332703   0.111776   1.521768 
  6   1.457223  -0.998723   0.982555 
  1   1.882127  -0.904241   1.986471 
  1   0.944658  -1.961243   0.946268 
  6   2.397689   1.528359   0.123394 
  1   2.825979   2.512496  -0.031045 
  6   3.119734   0.426930  -0.248214 
  1   4.086028   0.547352  -0.722629 
  6   2.592798  -0.959299  -0.042549 
  1   2.246207  -1.358828  -1.004791 
  1   3.401603  -1.624548   0.271052 
  6  -1.115166  -1.430657  -0.672626 
  1  -0.561998  -2.331699  -0.905522 
  6  -2.397689  -1.528359  -0.123394 
  1  -2.825979  -2.512496   0.031045 
  6  -1.457223   0.998723  -0.982556 
  1  -0.944658   1.961243  -0.946268 
  1  -1.882127   0.904241  -1.986471 
  6  -2.592798   0.959299   0.042549 
  1  -3.401603   1.624548  -0.271052 
  1  -2.246207   1.358828   1.004791 

qrep pcmdoc geomview  nodis nocav g03defaults tsare=0.075 
nsfe=28
NVESolv=36  SolvMW=84.1595   Rsolv=2.815 
eps=2.0165 RhoS=0.7781

   -3.119734    -0.426930     0.248214     1.700000     1.150000
   -0.452630    -0.134377    -0.766522     1.700000     1.150000
   -4.086028    -0.547352     0.722629     1.200000     1.150000
    0.332703    -0.111776    -1.521768     1.200000     1.150000
    1.115166     1.430657     0.672626     1.700000     1.150000
    0.452630     0.134377     0.766522     1.700000     1.150000
    0.561998     2.331699     0.905522     1.200000     1.150000
   -0.332703     0.111776     1.521768     1.200000     1.150000
    1.457223    -0.998723     0.982555     1.700000     1.150000
    1.882127    -0.904241     1.986471     1.200000     1.150000
    0.944658    -1.961243     0.946268     1.200000     1.150000
    2.397689     1.528359     0.123394     1.700000     1.150000
    2.825979     2.512496    -0.031045     1.200000     1.150000
    3.119734     0.426930    -0.248214     1.700000     1.150000
    4.086028     0.547352    -0.722629     1.200000     1.150000
    2.592798    -0.959299    -0.042549     1.700000     1.150000
    2.246207    -1.358828    -1.004791     1.200000     1.150000
    3.401603    -1.624548     0.271052     1.200000     1.150000
   -1.115166    -1.430657    -0.672626     1.700000     1.150000
   -0.561998    -2.331699    -0.905522     1.200000     1.150000
   -2.397689    -1.528359    -0.123394     1.700000     1.150000
   -2.825979    -2.512496     0.031045     1.200000     1.150000
   -1.457223     0.998723    -0.982556     1.700000     1.150000
   -0.944658     1.961243    -0.946268     1.200000     1.150000
   -1.882127     0.904241    -1.986471     1.200000     1.150000
   -2.592798     0.959299     0.042549     1.700000     1.150000
   -3.401603     1.624548    -0.271052     1.200000     1.150000
   -2.246207     1.358828     1.004791     1.200000     1.150000

--link1--
%chk=meso-TS_10_1_xp-110.chk
%nproc=24
%mem=48GB
#p uwb97xd guess=mix def2tzvp 
# scrf=(iefpcm,solvent=Cyclohexane,read) nosym guess=only pop=none 

endo-2
xp-pcm for eta=3

0 1
  6  -3.119734  -0.426930   0.248214 
  6  -0.452630  -0.134377  -0.766522 
  1  -4.086028  -0.547352   0.722629 
  1   0.332703  -0.111776  -1.521768 
  6   1.115166   1.430657   0.672626 
  6   0.452630   0.134377   0.766522 
  1   0.561998   2.331699   0.905522 
  1  -0.332703   0.111776   1.521768 
  6   1.457223  -0.998723   0.982555 
  1   1.882127  -0.904241   1.986471 
  1   0.944658  -1.961243   0.946268 
  6   2.397689   1.528359   0.123394 
  1   2.825979   2.512496  -0.031045 
  6   3.119734   0.426930  -0.248214 
  1   4.086028   0.547352  -0.722629 
  6   2.592798  -0.959299  -0.042549 
  1   2.246207  -1.358828  -1.004791 
  1   3.401603  -1.624548   0.271052 
  6  -1.115166  -1.430657  -0.672626 
  1  -0.561998  -2.331699  -0.905522 
  6  -2.397689  -1.528359  -0.123394 
  1  -2.825979  -2.512496   0.031045 
  6  -1.457223   0.998723  -0.982556 
  1  -0.944658   1.961243  -0.946268 
  1  -1.882127   0.904241  -1.986471 
  6  -2.592798   0.959299   0.042549 
  1  -3.401603   1.624548  -0.271052 
  1  -2.246207   1.358828   1.004791 

qrep pcmdoc geomview  nodis nocav g03defaults tsare=0.075 
nsfe=28
NVESolv=36  SolvMW=84.1595   Rsolv=2.815 
eps=2.0165 RhoS=0.7781

   -3.119734    -0.426930     0.248214     1.700000     1.100000
   -0.452630    -0.134377    -0.766522     1.700000     1.100000
   -4.086028    -0.547352     0.722629     1.200000     1.100000
    0.332703    -0.111776    -1.521768     1.200000     1.100000
    1.115166     1.430657     0.672626     1.700000     1.100000
    0.452630     0.134377     0.766522     1.700000     1.100000
    0.561998     2.331699     0.905522     1.200000     1.100000
   -0.332703     0.111776     1.521768     1.200000     1.100000
    1.457223    -0.998723     0.982555     1.700000     1.100000
    1.882127    -0.904241     1.986471     1.200000     1.100000
    0.944658    -1.961243     0.946268     1.200000     1.100000
    2.397689     1.528359     0.123394     1.700000     1.100000
    2.825979     2.512496    -0.031045     1.200000     1.100000
    3.119734     0.426930    -0.248214     1.700000     1.100000
    4.086028     0.547352    -0.722629     1.200000     1.100000
    2.592798    -0.959299    -0.042549     1.700000     1.100000
    2.246207    -1.358828    -1.004791     1.200000     1.100000
    3.401603    -1.624548     0.271052     1.200000     1.100000
   -1.115166    -1.430657    -0.672626     1.700000     1.100000
   -0.561998    -2.331699    -0.905522     1.200000     1.100000
   -2.397689    -1.528359    -0.123394     1.700000     1.100000
   -2.825979    -2.512496     0.031045     1.200000     1.100000
   -1.457223     0.998723    -0.982556     1.700000     1.100000
   -0.944658     1.961243    -0.946268     1.200000     1.100000
   -1.882127     0.904241    -1.986471     1.200000     1.100000
   -2.592798     0.959299     0.042549     1.700000     1.100000
   -3.401603     1.624548    -0.271052     1.200000     1.100000
   -2.246207     1.358828     1.004791     1.200000     1.100000

--link1--
%chk=meso-TS_10_1_xp-105.chk
%nproc=24
%mem=48GB
#p uwb97xd guess=mix def2tzvp 
# scrf=(iefpcm,solvent=Cyclohexane,read) nosym guess=only pop=none 

endo-2
xp-pcm for eta=3

0 1
  6  -3.119734  -0.426930   0.248214 
  6  -0.452630  -0.134377  -0.766522 
  1  -4.086028  -0.547352   0.722629 
  1   0.332703  -0.111776  -1.521768 
  6   1.115166   1.430657   0.672626 
  6   0.452630   0.134377   0.766522 
  1   0.561998   2.331699   0.905522 
  1  -0.332703   0.111776   1.521768 
  6   1.457223  -0.998723   0.982555 
  1   1.882127  -0.904241   1.986471 
  1   0.944658  -1.961243   0.946268 
  6   2.397689   1.528359   0.123394 
  1   2.825979   2.512496  -0.031045 
  6   3.119734   0.426930  -0.248214 
  1   4.086028   0.547352  -0.722629 
  6   2.592798  -0.959299  -0.042549 
  1   2.246207  -1.358828  -1.004791 
  1   3.401603  -1.624548   0.271052 
  6  -1.115166  -1.430657  -0.672626 
  1  -0.561998  -2.331699  -0.905522 
  6  -2.397689  -1.528359  -0.123394 
  1  -2.825979  -2.512496   0.031045 
  6  -1.457223   0.998723  -0.982556 
  1  -0.944658   1.961243  -0.946268 
  1  -1.882127   0.904241  -1.986471 
  6  -2.592798   0.959299   0.042549 
  1  -3.401603   1.624548  -0.271052 
  1  -2.246207   1.358828   1.004791 

qrep pcmdoc geomview  nodis nocav g03defaults tsare=0.075 
nsfe=28
NVESolv=36  SolvMW=84.1595   Rsolv=2.815 
eps=2.0165 RhoS=0.7781

   -3.119734    -0.426930     0.248214     1.700000     1.050000
   -0.452630    -0.134377    -0.766522     1.700000     1.050000
   -4.086028    -0.547352     0.722629     1.200000     1.050000
    0.332703    -0.111776    -1.521768     1.200000     1.050000
    1.115166     1.430657     0.672626     1.700000     1.050000
    0.452630     0.134377     0.766522     1.700000     1.050000
    0.561998     2.331699     0.905522     1.200000     1.050000
   -0.332703     0.111776     1.521768     1.200000     1.050000
    1.457223    -0.998723     0.982555     1.700000     1.050000
    1.882127    -0.904241     1.986471     1.200000     1.050000
    0.944658    -1.961243     0.946268     1.200000     1.050000
    2.397689     1.528359     0.123394     1.700000     1.050000
    2.825979     2.512496    -0.031045     1.200000     1.050000
    3.119734     0.426930    -0.248214     1.700000     1.050000
    4.086028     0.547352    -0.722629     1.200000     1.050000
    2.592798    -0.959299    -0.042549     1.700000     1.050000
    2.246207    -1.358828    -1.004791     1.200000     1.050000
    3.401603    -1.624548     0.271052     1.200000     1.050000
   -1.115166    -1.430657    -0.672626     1.700000     1.050000
   -0.561998    -2.331699    -0.905522     1.200000     1.050000
   -2.397689    -1.528359    -0.123394     1.700000     1.050000
   -2.825979    -2.512496     0.031045     1.200000     1.050000
   -1.457223     0.998723    -0.982556     1.700000     1.050000
   -0.944658     1.961243    -0.946268     1.200000     1.050000
   -1.882127     0.904241    -1.986471     1.200000     1.050000
   -2.592798     0.959299     0.042549     1.700000     1.050000
   -3.401603     1.624548    -0.271052     1.200000     1.050000
   -2.246207     1.358828     1.004791     1.200000     1.050000

--link1--
%chk=meso-TS_10_1_xp-100.chk
%nproc=24
%mem=48GB
#p uwb97xd guess=mix def2tzvp 
# scrf=(iefpcm,solvent=Cyclohexane,read) nosym guess=only pop=none 

endo-2
xp-pcm for eta=3

0 1
  6  -3.119734  -0.426930   0.248214 
  6  -0.452630  -0.134377  -0.766522 
  1  -4.086028  -0.547352   0.722629 
  1   0.332703  -0.111776  -1.521768 
  6   1.115166   1.430657   0.672626 
  6   0.452630   0.134377   0.766522 
  1   0.561998   2.331699   0.905522 
  1  -0.332703   0.111776   1.521768 
  6   1.457223  -0.998723   0.982555 
  1   1.882127  -0.904241   1.986471 
  1   0.944658  -1.961243   0.946268 
  6   2.397689   1.528359   0.123394 
  1   2.825979   2.512496  -0.031045 
  6   3.119734   0.426930  -0.248214 
  1   4.086028   0.547352  -0.722629 
  6   2.592798  -0.959299  -0.042549 
  1   2.246207  -1.358828  -1.004791 
  1   3.401603  -1.624548   0.271052 
  6  -1.115166  -1.430657  -0.672626 
  1  -0.561998  -2.331699  -0.905522 
  6  -2.397689  -1.528359  -0.123394 
  1  -2.825979  -2.512496   0.031045 
  6  -1.457223   0.998723  -0.982556 
  1  -0.944658   1.961243  -0.946268 
  1  -1.882127   0.904241  -1.986471 
  6  -2.592798   0.959299   0.042549 
  1  -3.401603   1.624548  -0.271052 
  1  -2.246207   1.358828   1.004791 

qrep pcmdoc geomview  nodis nocav g03defaults tsare=0.075 
nsfe=28
NVESolv=36  SolvMW=84.1595   Rsolv=2.815 
eps=2.0165 RhoS=0.7781

   -3.119734    -0.426930     0.248214     1.700000     1.000000
   -0.452630    -0.134377    -0.766522     1.700000     1.000000
   -4.086028    -0.547352     0.722629     1.200000     1.000000
    0.332703    -0.111776    -1.521768     1.200000     1.000000
    1.115166     1.430657     0.672626     1.700000     1.000000
    0.452630     0.134377     0.766522     1.700000     1.000000
    0.561998     2.331699     0.905522     1.200000     1.000000
   -0.332703     0.111776     1.521768     1.200000     1.000000
    1.457223    -0.998723     0.982555     1.700000     1.000000
    1.882127    -0.904241     1.986471     1.200000     1.000000
    0.944658    -1.961243     0.946268     1.200000     1.000000
    2.397689     1.528359     0.123394     1.700000     1.000000
    2.825979     2.512496    -0.031045     1.200000     1.000000
    3.119734     0.426930    -0.248214     1.700000     1.000000
    4.086028     0.547352    -0.722629     1.200000     1.000000
    2.592798    -0.959299    -0.042549     1.700000     1.000000
    2.246207    -1.358828    -1.004791     1.200000     1.000000
    3.401603    -1.624548     0.271052     1.200000     1.000000
   -1.115166    -1.430657    -0.672626     1.700000     1.000000
   -0.561998    -2.331699    -0.905522     1.200000     1.000000
   -2.397689    -1.528359    -0.123394     1.700000     1.000000
   -2.825979    -2.512496     0.031045     1.200000     1.000000
   -1.457223     0.998723    -0.982556     1.700000     1.000000
   -0.944658     1.961243    -0.946268     1.200000     1.000000
   -1.882127     0.904241    -1.986471     1.200000     1.000000
   -2.592798     0.959299     0.042549     1.700000     1.000000
   -3.401603     1.624548    -0.271052     1.200000     1.000000
   -2.246207     1.358828     1.004791     1.200000     1.000000

--link1--
%chk=meso-TS_10_1_xp-0975.chk
%nproc=24
%mem=48GB
#p uwb97xd guess=mix def2tzvp 
# scrf=(iefpcm,solvent=Cyclohexane,read) nosym guess=only pop=none 

endo-2
xp-pcm for eta=3

0 1
  6  -3.119734  -0.426930   0.248214 
  6  -0.452630  -0.134377  -0.766522 
  1  -4.086028  -0.547352   0.722629 
  1   0.332703  -0.111776  -1.521768 
  6   1.115166   1.430657   0.672626 
  6   0.452630   0.134377   0.766522 
  1   0.561998   2.331699   0.905522 
  1  -0.332703   0.111776   1.521768 
  6   1.457223  -0.998723   0.982555 
  1   1.882127  -0.904241   1.986471 
  1   0.944658  -1.961243   0.946268 
  6   2.397689   1.528359   0.123394 
  1   2.825979   2.512496  -0.031045 
  6   3.119734   0.426930  -0.248214 
  1   4.086028   0.547352  -0.722629 
  6   2.592798  -0.959299  -0.042549 
  1   2.246207  -1.358828  -1.004791 
  1   3.401603  -1.624548   0.271052 
  6  -1.115166  -1.430657  -0.672626 
  1  -0.561998  -2.331699  -0.905522 
  6  -2.397689  -1.528359  -0.123394 
  1  -2.825979  -2.512496   0.031045 
  6  -1.457223   0.998723  -0.982556 
  1  -0.944658   1.961243  -0.946268 
  1  -1.882127   0.904241  -1.986471 
  6  -2.592798   0.959299   0.042549 
  1  -3.401603   1.624548  -0.271052 
  1  -2.246207   1.358828   1.004791 

qrep pcmdoc geomview  nodis nocav g03defaults tsare=0.075 
nsfe=28
NVESolv=36  SolvMW=84.1595   Rsolv=2.815 
eps=2.0165 RhoS=0.7781

   -3.119734    -0.426930     0.248214     1.700000     0.975000
   -0.452630    -0.134377    -0.766522     1.700000     0.975000
   -4.086028    -0.547352     0.722629     1.200000     0.975000
    0.332703    -0.111776    -1.521768     1.200000     0.975000
    1.115166     1.430657     0.672626     1.700000     0.975000
    0.452630     0.134377     0.766522     1.700000     0.975000
    0.561998     2.331699     0.905522     1.200000     0.975000
   -0.332703     0.111776     1.521768     1.200000     0.975000
    1.457223    -0.998723     0.982555     1.700000     0.975000
    1.882127    -0.904241     1.986471     1.200000     0.975000
    0.944658    -1.961243     0.946268     1.200000     0.975000
    2.397689     1.528359     0.123394     1.700000     0.975000
    2.825979     2.512496    -0.031045     1.200000     0.975000
    3.119734     0.426930    -0.248214     1.700000     0.975000
    4.086028     0.547352    -0.722629     1.200000     0.975000
    2.592798    -0.959299    -0.042549     1.700000     0.975000
    2.246207    -1.358828    -1.004791     1.200000     0.975000
    3.401603    -1.624548     0.271052     1.200000     0.975000
   -1.115166    -1.430657    -0.672626     1.700000     0.975000
   -0.561998    -2.331699    -0.905522     1.200000     0.975000
   -2.397689    -1.528359    -0.123394     1.700000     0.975000
   -2.825979    -2.512496     0.031045     1.200000     0.975000
   -1.457223     0.998723    -0.982556     1.700000     0.975000
   -0.944658     1.961243    -0.946268     1.200000     0.975000
   -1.882127     0.904241    -1.986471     1.200000     0.975000
   -2.592798     0.959299     0.042549     1.700000     0.975000
   -3.401603     1.624548    -0.271052     1.200000     0.975000
   -2.246207     1.358828     1.004791     1.200000     0.975000

--link1--
%chk=meso-TS_10_1_xp-095.chk
%nproc=24
%mem=48GB
#p uwb97xd guess=mix def2tzvp 
# scrf=(iefpcm,solvent=Cyclohexane,read) nosym guess=only pop=none 

endo-2
xp-pcm for eta=3

0 1
  6  -3.119734  -0.426930   0.248214 
  6  -0.452630  -0.134377  -0.766522 
  1  -4.086028  -0.547352   0.722629 
  1   0.332703  -0.111776  -1.521768 
  6   1.115166   1.430657   0.672626 
  6   0.452630   0.134377   0.766522 
  1   0.561998   2.331699   0.905522 
  1  -0.332703   0.111776   1.521768 
  6   1.457223  -0.998723   0.982555 
  1   1.882127  -0.904241   1.986471 
  1   0.944658  -1.961243   0.946268 
  6   2.397689   1.528359   0.123394 
  1   2.825979   2.512496  -0.031045 
  6   3.119734   0.426930  -0.248214 
  1   4.086028   0.547352  -0.722629 
  6   2.592798  -0.959299  -0.042549 
  1   2.246207  -1.358828  -1.004791 
  1   3.401603  -1.624548   0.271052 
  6  -1.115166  -1.430657  -0.672626 
  1  -0.561998  -2.331699  -0.905522 
  6  -2.397689  -1.528359  -0.123394 
  1  -2.825979  -2.512496   0.031045 
  6  -1.457223   0.998723  -0.982556 
  1  -0.944658   1.961243  -0.946268 
  1  -1.882127   0.904241  -1.986471 
  6  -2.592798   0.959299   0.042549 
  1  -3.401603   1.624548  -0.271052 
  1  -2.246207   1.358828   1.004791 

qrep pcmdoc geomview  nodis nocav g03defaults tsare=0.075 
nsfe=28
NVESolv=36  SolvMW=84.1595   Rsolv=2.815 
eps=2.0165 RhoS=0.7781

   -3.119734    -0.426930     0.248214     1.700000     0.950000
   -0.452630    -0.134377    -0.766522     1.700000     0.950000
   -4.086028    -0.547352     0.722629     1.200000     0.950000
    0.332703    -0.111776    -1.521768     1.200000     0.950000
    1.115166     1.430657     0.672626     1.700000     0.950000
    0.452630     0.134377     0.766522     1.700000     0.950000
    0.561998     2.331699     0.905522     1.200000     0.950000
   -0.332703     0.111776     1.521768     1.200000     0.950000
    1.457223    -0.998723     0.982555     1.700000     0.950000
    1.882127    -0.904241     1.986471     1.200000     0.950000
    0.944658    -1.961243     0.946268     1.200000     0.950000
    2.397689     1.528359     0.123394     1.700000     0.950000
    2.825979     2.512496    -0.031045     1.200000     0.950000
    3.119734     0.426930    -0.248214     1.700000     0.950000
    4.086028     0.547352    -0.722629     1.200000     0.950000
    2.592798    -0.959299    -0.042549     1.700000     0.950000
    2.246207    -1.358828    -1.004791     1.200000     0.950000
    3.401603    -1.624548     0.271052     1.200000     0.950000
   -1.115166    -1.430657    -0.672626     1.700000     0.950000
   -0.561998    -2.331699    -0.905522     1.200000     0.950000
   -2.397689    -1.528359    -0.123394     1.700000     0.950000
   -2.825979    -2.512496     0.031045     1.200000     0.950000
   -1.457223     0.998723    -0.982556     1.700000     0.950000
   -0.944658     1.961243    -0.946268     1.200000     0.950000
   -1.882127     0.904241    -1.986471     1.200000     0.950000
   -2.592798     0.959299     0.042549     1.700000     0.950000
   -3.401603     1.624548    -0.271052     1.200000     0.950000
   -2.246207     1.358828     1.004791     1.200000     0.950000

