%nproc=24
%mem=48GB
#p uwb97xd guess=mix def2tzvp 

endo-2

0 1
  6  -3.118021  -0.436434   0.246814 
  6  -0.540801  -0.189187  -0.905365 
  1  -4.082489  -0.549871   0.728045 
  1   0.377295  -0.116929  -1.473260 
  6   1.091386   1.404996   0.687212 
  6   0.540801   0.189187   0.905365 
  1   0.527763   2.310929   0.871630 
  1  -0.377295   0.116929   1.473260 
  6   1.464971  -0.999714   0.988105 
  1   1.905333  -0.956079   1.991084 
  1   0.918248  -1.940154   0.928320 
  6   2.416056   1.516900   0.113501 
  1   2.826400   2.506211  -0.052048 
  6   3.118021   0.436434  -0.246814 
  1   4.082489   0.549871  -0.728045 
  6   2.591807  -0.958352  -0.044272 
  1   2.252673  -1.356402  -1.008685 
  1   3.400675  -1.620592   0.272198 
  6  -1.091386  -1.404996  -0.687212 
  1  -0.527763  -2.310929  -0.871630 
  6  -2.416056  -1.516900  -0.113501 
  1  -2.826400  -2.506211   0.052048 
  6  -1.464971   0.999714  -0.988105 
  1  -0.918248   1.940154  -0.928320 
  1  -1.905333   0.956079  -1.991084 
  6  -2.591807   0.958352   0.044272 
  1  -3.400675   1.620592  -0.272198 
  1  -2.252673   1.356402   1.008685 

