%nproc=24
%mem=48GB
#p uwb97xd guess=mix def2tzvp 

endo-2

0 1
  6  -3.122592  -0.438388   0.249109 
  6  -0.621801  -0.222716  -1.060943 
  1  -4.085324  -0.547212   0.735016 
  1   0.349284  -0.128633  -1.527138 
  6   1.104299   1.412726   0.711533 
  6   0.621801   0.222716   1.060943 
  1   0.516259   2.312051   0.844298 
  1  -0.349284   0.128633   1.527138 
  6   1.489396  -1.000996   1.019772 
  1   1.961797  -1.065850   2.008075 
  1   0.889010  -1.902931   0.914465 
  6   2.428355   1.519137   0.107940 
  1   2.836160   2.506797  -0.071809 
  6   3.122592   0.438388  -0.249109 
  1   4.085324   0.547212  -0.735016 
  6   2.589439  -0.953530  -0.045302 
  1   2.226867  -1.339383  -1.006111 
  1   3.400958  -1.623074   0.247309 
  6  -1.104299  -1.412726  -0.711533 
  1  -0.516259  -2.312051  -0.844298 
  6  -2.428355  -1.519137  -0.107940 
  1  -2.836160  -2.506797   0.071809 
  6  -1.489396   1.000996  -1.019772 
  1  -0.889010   1.902931  -0.914465 
  1  -1.961797   1.065850  -2.008075 
  6  -2.589439   0.953530   0.045302 
  1  -3.400958   1.623074  -0.247309 
  1  -2.226867   1.339383   1.006111 

