%nproc=24
%mem=48GB
#p uwb97xd guess=mix def2tzvp 

endo-2

0 1
  6  -3.118506  -0.433618   0.247118 
  6  -0.514733  -0.171607  -0.865795 
  1  -4.083331  -0.549256   0.726737 
  1   0.363275  -0.116238  -1.498769 
  6   1.099533   1.413571   0.683322 
  6   0.514733   0.171607   0.865795 
  1   0.538422   2.318194   0.881051 
  1  -0.363275   0.116238   1.498769 
  6   1.463553  -0.999906   0.987805 
  1   1.901234  -0.944255   1.990757 
  1   0.925499  -1.946445   0.933253 
  6   2.410098   1.520311   0.116245 
  1   2.824964   2.508087  -0.048343 
  6   3.118506   0.433618  -0.247118 
  1   4.083331   0.549256  -0.726737 
  6   2.592084  -0.958505  -0.043697 
  1   2.250091  -1.356760  -1.007281 
  1   3.400978  -1.621842   0.271430 
  6  -1.099533  -1.413571  -0.683322 
  1  -0.538422  -2.318194  -0.881051 
  6  -2.410098  -1.520311  -0.116245 
  1  -2.824964  -2.508087   0.048343 
  6  -1.463553   0.999906  -0.987804 
  1  -0.925499   1.946445  -0.933253 
  1  -1.901233   0.944255  -1.990757 
  6  -2.592085   0.958505   0.043697 
  1  -3.400978   1.621842  -0.271431 
  1  -2.250091   1.356760   1.007281 

