%nproc=24
%mem=48GB
#p uwb97xd guess=mix def2tzvp 

endo-2

0 1
  6  -3.126352  -0.423516   0.234370 
  6  -0.401160  -0.124039  -0.662968 
  1  -4.114854  -0.544223   0.660026 
  1   0.328214  -0.123264  -1.477496 
  6   1.103021   1.442661   0.618574 
  6   0.401160   0.124039   0.662968 
  1   0.569383   2.340382   0.903939 
  1  -0.328214   0.123264   1.477496 
  6   1.424647  -0.984831   0.938153 
  1   1.825434  -0.831325   1.943409 
  1   0.938751  -1.961638   0.935909 
  6   2.398516   1.533241   0.141392 
  1   2.856274   2.512392   0.051328 
  6   3.126352   0.423516  -0.234370 
  1   4.114854   0.544223  -0.660026 
  6   2.583714  -0.959116  -0.058170 
  1   2.259448  -1.354927  -1.030069 
  1   3.378219  -1.631825   0.276143 
  6  -1.103021  -1.442661  -0.618574 
  1  -0.569383  -2.340382  -0.903939 
  6  -2.398516  -1.533241  -0.141392 
  1  -2.856274  -2.512392  -0.051328 
  6  -1.424647   0.984831  -0.938153 
  1  -0.938751   1.961638  -0.935909 
  1  -1.825434   0.831325  -1.943409 
  6  -2.583714   0.959116   0.058170 
  1  -3.378219   1.631825  -0.276143 
  1  -2.259448   1.354927   1.030069 

