%chk=
%nproc=24
%mem=48GB
#p uwb97xd guess=mix def2tzvp 
# scrf=(iefpcm,solvent=Cyclohexane,read) nosym guess=only pop=none 

endo-2
xp-pcm for eta=3

0 1
  6  -3.127568  -0.441485   0.263433 
  6  -0.731288  -0.250831  -1.236755 
  1  -4.070209  -0.533386   0.790505 
  1   0.219568  -0.168512  -1.748484 
  6   1.167775   1.425763   0.792854 
  6   0.731288   0.250831   1.236755 
  1   0.574947   2.322303   0.929282 
  1  -0.219568   0.168512   1.748484 
  6   1.564621  -0.992103   1.115813 
  1   2.097096  -1.123993   2.066407 
  1   0.920060  -1.865000   1.008560 
  6   2.457254   1.530153   0.109662 
  1   2.856885   2.515574  -0.098107 
  6   3.127568   0.441485  -0.263433 
  1   4.070209   0.533386  -0.790505 
  6   2.575144  -0.939221  -0.035211 
  1   2.106401  -1.279780  -0.966682 
  1   3.387766  -1.642218   0.157850 
  6  -1.167775  -1.425763  -0.792854 
  1  -0.574947  -2.322303  -0.929282 
  6  -2.457254  -1.530153  -0.109662 
  1  -2.856885  -2.515574   0.098107 
  6  -1.564621   0.992103  -1.115813 
  1  -0.920060   1.865000  -1.008560 
  1  -2.097096   1.123993  -2.066407 
  6  -2.575144   0.939221   0.035211 
  1  -3.387766   1.642218  -0.157850 
  1  -2.106402   1.279780   0.966682 

qrep pcmdoc geomview  nodis nocav g03defaults tsare=0.075 
nsfe=28
NVESolv=36  SolvMW=84.1595   Rsolv=2.815 
eps=2.0165 RhoS=0.7781

    1     2.040000     1.000000
    2     2.040000     1.000000
    3     1.440000     1.000000
    4     1.440000     1.000000
    5     2.040000     1.000000
    6     2.040000     1.000000
    7     1.440000     1.000000
    8     1.440000     1.000000
    9     2.040000     1.000000
   10     1.440000     1.000000
   11     1.440000     1.000000
   12     2.040000     1.000000
   13     1.440000     1.000000
   14     2.040000     1.000000
   15     1.440000     1.000000
   16     2.040000     1.000000
   17     1.440000     1.000000
   18     1.440000     1.000000
   19     2.040000     1.000000
   20     1.440000     1.000000
   21     2.040000     1.000000
   22     1.440000     1.000000
   23     2.040000     1.000000
   24     1.440000     1.000000
   25     1.440000     1.000000
   26     2.040000     1.000000
   27     1.440000     1.000000
   28     1.440000     1.000000

