%chk=meso-TS_40_2_xp-12.chk
%nproc=24
%mem=48GB
#p uwb97xd guess=mix def2tzvp 
# scrf=(iefpcm,solvent=Cyclohexane,read) nosym guess=only pop=none 

endo-2
xp-pcm for eta=3

0 1
  6  -3.126891  -0.440888   0.255118 
  6  -0.684423  -0.239784  -1.165641 
  1  -4.081225  -0.540147   0.759340 
  1   0.279559  -0.151378  -1.650033 
  6   1.137152   1.419764   0.752892 
  6   0.684423   0.239784   1.165641 
  1   0.543796   2.316608   0.882649 
  1  -0.279559   0.151379   1.650033 
  6   1.527143  -0.999005   1.070559 
  1   2.027460  -1.119961   2.039740 
  1   0.894773  -1.877853   0.948868 
  6   2.443219   1.525992   0.104990 
  1   2.846024   2.512508  -0.091240 
  6   3.126891   0.440888  -0.255118 
  1   4.081225   0.540147  -0.759340 
  6   2.582831  -0.945113  -0.039623 
  1   2.164096  -1.304863  -0.987620 
  1   3.396382  -1.633179   0.198658 
  6  -1.137152  -1.419764  -0.752892 
  1  -0.543796  -2.316608  -0.882649 
  6  -2.443219  -1.525992  -0.104990 
  1  -2.846024  -2.512508   0.091240 
  6  -1.527143   0.999005  -1.070559 
  1  -0.894773   1.877853  -0.948868 
  1  -2.027460   1.119961  -2.039740 
  6  -2.582831   0.945113   0.039623 
  1  -3.396382   1.633179  -0.198658 
  1  -2.164097   1.304863   0.987620 

qrep pcmdoc geomview  nodis nocav g03defaults tsare=0.075 
nsfe=28
NVESolv=36  SolvMW=84.1595   Rsolv=2.815 
eps=2.0165 RhoS=0.7781

   -3.126891    -0.440888     0.255118     1.700000     1.200000
   -0.684423    -0.239784    -1.165641     1.700000     1.200000
   -4.081225    -0.540147     0.759340     1.200000     1.200000
    0.279559    -0.151378    -1.650033     1.200000     1.200000
    1.137152     1.419764     0.752892     1.700000     1.200000
    0.684423     0.239784     1.165641     1.700000     1.200000
    0.543796     2.316608     0.882649     1.200000     1.200000
   -0.279559     0.151379     1.650033     1.200000     1.200000
    1.527143    -0.999005     1.070559     1.700000     1.200000
    2.027460    -1.119961     2.039740     1.200000     1.200000
    0.894773    -1.877853     0.948868     1.200000     1.200000
    2.443219     1.525992     0.104990     1.700000     1.200000
    2.846024     2.512508    -0.091240     1.200000     1.200000
    3.126891     0.440888    -0.255118     1.700000     1.200000
    4.081225     0.540147    -0.759340     1.200000     1.200000
    2.582831    -0.945113    -0.039623     1.700000     1.200000
    2.164096    -1.304863    -0.987620     1.200000     1.200000
    3.396382    -1.633179     0.198658     1.200000     1.200000
   -1.137152    -1.419764    -0.752892     1.700000     1.200000
   -0.543796    -2.316608    -0.882649     1.200000     1.200000
   -2.443219    -1.525992    -0.104990     1.700000     1.200000
   -2.846024    -2.512508     0.091240     1.200000     1.200000
   -1.527143     0.999005    -1.070559     1.700000     1.200000
   -0.894773     1.877853    -0.948868     1.200000     1.200000
   -2.027460     1.119961    -2.039740     1.200000     1.200000
   -2.582831     0.945113     0.039623     1.700000     1.200000
   -3.396382     1.633179    -0.198658     1.200000     1.200000
   -2.164097     1.304863     0.987620     1.200000     1.200000

--link1--
%chk=meso-TS_40_2_xp-115.chk
%nproc=24
%mem=48GB
#p uwb97xd guess=mix def2tzvp 
# scrf=(iefpcm,solvent=Cyclohexane,read) nosym guess=only pop=none 

endo-2
xp-pcm for eta=3

0 1
  6  -3.126891  -0.440888   0.255118 
  6  -0.684423  -0.239784  -1.165641 
  1  -4.081225  -0.540147   0.759340 
  1   0.279559  -0.151378  -1.650033 
  6   1.137152   1.419764   0.752892 
  6   0.684423   0.239784   1.165641 
  1   0.543796   2.316608   0.882649 
  1  -0.279559   0.151379   1.650033 
  6   1.527143  -0.999005   1.070559 
  1   2.027460  -1.119961   2.039740 
  1   0.894773  -1.877853   0.948868 
  6   2.443219   1.525992   0.104990 
  1   2.846024   2.512508  -0.091240 
  6   3.126891   0.440888  -0.255118 
  1   4.081225   0.540147  -0.759340 
  6   2.582831  -0.945113  -0.039623 
  1   2.164096  -1.304863  -0.987620 
  1   3.396382  -1.633179   0.198658 
  6  -1.137152  -1.419764  -0.752892 
  1  -0.543796  -2.316608  -0.882649 
  6  -2.443219  -1.525992  -0.104990 
  1  -2.846024  -2.512508   0.091240 
  6  -1.527143   0.999005  -1.070559 
  1  -0.894773   1.877853  -0.948868 
  1  -2.027460   1.119961  -2.039740 
  6  -2.582831   0.945113   0.039623 
  1  -3.396382   1.633179  -0.198658 
  1  -2.164097   1.304863   0.987620 

qrep pcmdoc geomview  nodis nocav g03defaults tsare=0.075 
nsfe=28
NVESolv=36  SolvMW=84.1595   Rsolv=2.815 
eps=2.0165 RhoS=0.7781

   -3.126891    -0.440888     0.255118     1.700000     1.150000
   -0.684423    -0.239784    -1.165641     1.700000     1.150000
   -4.081225    -0.540147     0.759340     1.200000     1.150000
    0.279559    -0.151378    -1.650033     1.200000     1.150000
    1.137152     1.419764     0.752892     1.700000     1.150000
    0.684423     0.239784     1.165641     1.700000     1.150000
    0.543796     2.316608     0.882649     1.200000     1.150000
   -0.279559     0.151379     1.650033     1.200000     1.150000
    1.527143    -0.999005     1.070559     1.700000     1.150000
    2.027460    -1.119961     2.039740     1.200000     1.150000
    0.894773    -1.877853     0.948868     1.200000     1.150000
    2.443219     1.525992     0.104990     1.700000     1.150000
    2.846024     2.512508    -0.091240     1.200000     1.150000
    3.126891     0.440888    -0.255118     1.700000     1.150000
    4.081225     0.540147    -0.759340     1.200000     1.150000
    2.582831    -0.945113    -0.039623     1.700000     1.150000
    2.164096    -1.304863    -0.987620     1.200000     1.150000
    3.396382    -1.633179     0.198658     1.200000     1.150000
   -1.137152    -1.419764    -0.752892     1.700000     1.150000
   -0.543796    -2.316608    -0.882649     1.200000     1.150000
   -2.443219    -1.525992    -0.104990     1.700000     1.150000
   -2.846024    -2.512508     0.091240     1.200000     1.150000
   -1.527143     0.999005    -1.070559     1.700000     1.150000
   -0.894773     1.877853    -0.948868     1.200000     1.150000
   -2.027460     1.119961    -2.039740     1.200000     1.150000
   -2.582831     0.945113     0.039623     1.700000     1.150000
   -3.396382     1.633179    -0.198658     1.200000     1.150000
   -2.164097     1.304863     0.987620     1.200000     1.150000

--link1--
%chk=meso-TS_40_2_xp-110.chk
%nproc=24
%mem=48GB
#p uwb97xd guess=mix def2tzvp 
# scrf=(iefpcm,solvent=Cyclohexane,read) nosym guess=only pop=none 

endo-2
xp-pcm for eta=3

0 1
  6  -3.126891  -0.440888   0.255118 
  6  -0.684423  -0.239784  -1.165641 
  1  -4.081225  -0.540147   0.759340 
  1   0.279559  -0.151378  -1.650033 
  6   1.137152   1.419764   0.752892 
  6   0.684423   0.239784   1.165641 
  1   0.543796   2.316608   0.882649 
  1  -0.279559   0.151379   1.650033 
  6   1.527143  -0.999005   1.070559 
  1   2.027460  -1.119961   2.039740 
  1   0.894773  -1.877853   0.948868 
  6   2.443219   1.525992   0.104990 
  1   2.846024   2.512508  -0.091240 
  6   3.126891   0.440888  -0.255118 
  1   4.081225   0.540147  -0.759340 
  6   2.582831  -0.945113  -0.039623 
  1   2.164096  -1.304863  -0.987620 
  1   3.396382  -1.633179   0.198658 
  6  -1.137152  -1.419764  -0.752892 
  1  -0.543796  -2.316608  -0.882649 
  6  -2.443219  -1.525992  -0.104990 
  1  -2.846024  -2.512508   0.091240 
  6  -1.527143   0.999005  -1.070559 
  1  -0.894773   1.877853  -0.948868 
  1  -2.027460   1.119961  -2.039740 
  6  -2.582831   0.945113   0.039623 
  1  -3.396382   1.633179  -0.198658 
  1  -2.164097   1.304863   0.987620 

qrep pcmdoc geomview  nodis nocav g03defaults tsare=0.075 
nsfe=28
NVESolv=36  SolvMW=84.1595   Rsolv=2.815 
eps=2.0165 RhoS=0.7781

   -3.126891    -0.440888     0.255118     1.700000     1.100000
   -0.684423    -0.239784    -1.165641     1.700000     1.100000
   -4.081225    -0.540147     0.759340     1.200000     1.100000
    0.279559    -0.151378    -1.650033     1.200000     1.100000
    1.137152     1.419764     0.752892     1.700000     1.100000
    0.684423     0.239784     1.165641     1.700000     1.100000
    0.543796     2.316608     0.882649     1.200000     1.100000
   -0.279559     0.151379     1.650033     1.200000     1.100000
    1.527143    -0.999005     1.070559     1.700000     1.100000
    2.027460    -1.119961     2.039740     1.200000     1.100000
    0.894773    -1.877853     0.948868     1.200000     1.100000
    2.443219     1.525992     0.104990     1.700000     1.100000
    2.846024     2.512508    -0.091240     1.200000     1.100000
    3.126891     0.440888    -0.255118     1.700000     1.100000
    4.081225     0.540147    -0.759340     1.200000     1.100000
    2.582831    -0.945113    -0.039623     1.700000     1.100000
    2.164096    -1.304863    -0.987620     1.200000     1.100000
    3.396382    -1.633179     0.198658     1.200000     1.100000
   -1.137152    -1.419764    -0.752892     1.700000     1.100000
   -0.543796    -2.316608    -0.882649     1.200000     1.100000
   -2.443219    -1.525992    -0.104990     1.700000     1.100000
   -2.846024    -2.512508     0.091240     1.200000     1.100000
   -1.527143     0.999005    -1.070559     1.700000     1.100000
   -0.894773     1.877853    -0.948868     1.200000     1.100000
   -2.027460     1.119961    -2.039740     1.200000     1.100000
   -2.582831     0.945113     0.039623     1.700000     1.100000
   -3.396382     1.633179    -0.198658     1.200000     1.100000
   -2.164097     1.304863     0.987620     1.200000     1.100000

--link1--
%chk=meso-TS_40_2_xp-105.chk
%nproc=24
%mem=48GB
#p uwb97xd guess=mix def2tzvp 
# scrf=(iefpcm,solvent=Cyclohexane,read) nosym guess=only pop=none 

endo-2
xp-pcm for eta=3

0 1
  6  -3.126891  -0.440888   0.255118 
  6  -0.684423  -0.239784  -1.165641 
  1  -4.081225  -0.540147   0.759340 
  1   0.279559  -0.151378  -1.650033 
  6   1.137152   1.419764   0.752892 
  6   0.684423   0.239784   1.165641 
  1   0.543796   2.316608   0.882649 
  1  -0.279559   0.151379   1.650033 
  6   1.527143  -0.999005   1.070559 
  1   2.027460  -1.119961   2.039740 
  1   0.894773  -1.877853   0.948868 
  6   2.443219   1.525992   0.104990 
  1   2.846024   2.512508  -0.091240 
  6   3.126891   0.440888  -0.255118 
  1   4.081225   0.540147  -0.759340 
  6   2.582831  -0.945113  -0.039623 
  1   2.164096  -1.304863  -0.987620 
  1   3.396382  -1.633179   0.198658 
  6  -1.137152  -1.419764  -0.752892 
  1  -0.543796  -2.316608  -0.882649 
  6  -2.443219  -1.525992  -0.104990 
  1  -2.846024  -2.512508   0.091240 
  6  -1.527143   0.999005  -1.070559 
  1  -0.894773   1.877853  -0.948868 
  1  -2.027460   1.119961  -2.039740 
  6  -2.582831   0.945113   0.039623 
  1  -3.396382   1.633179  -0.198658 
  1  -2.164097   1.304863   0.987620 

qrep pcmdoc geomview  nodis nocav g03defaults tsare=0.075 
nsfe=28
NVESolv=36  SolvMW=84.1595   Rsolv=2.815 
eps=2.0165 RhoS=0.7781

   -3.126891    -0.440888     0.255118     1.700000     1.050000
   -0.684423    -0.239784    -1.165641     1.700000     1.050000
   -4.081225    -0.540147     0.759340     1.200000     1.050000
    0.279559    -0.151378    -1.650033     1.200000     1.050000
    1.137152     1.419764     0.752892     1.700000     1.050000
    0.684423     0.239784     1.165641     1.700000     1.050000
    0.543796     2.316608     0.882649     1.200000     1.050000
   -0.279559     0.151379     1.650033     1.200000     1.050000
    1.527143    -0.999005     1.070559     1.700000     1.050000
    2.027460    -1.119961     2.039740     1.200000     1.050000
    0.894773    -1.877853     0.948868     1.200000     1.050000
    2.443219     1.525992     0.104990     1.700000     1.050000
    2.846024     2.512508    -0.091240     1.200000     1.050000
    3.126891     0.440888    -0.255118     1.700000     1.050000
    4.081225     0.540147    -0.759340     1.200000     1.050000
    2.582831    -0.945113    -0.039623     1.700000     1.050000
    2.164096    -1.304863    -0.987620     1.200000     1.050000
    3.396382    -1.633179     0.198658     1.200000     1.050000
   -1.137152    -1.419764    -0.752892     1.700000     1.050000
   -0.543796    -2.316608    -0.882649     1.200000     1.050000
   -2.443219    -1.525992    -0.104990     1.700000     1.050000
   -2.846024    -2.512508     0.091240     1.200000     1.050000
   -1.527143     0.999005    -1.070559     1.700000     1.050000
   -0.894773     1.877853    -0.948868     1.200000     1.050000
   -2.027460     1.119961    -2.039740     1.200000     1.050000
   -2.582831     0.945113     0.039623     1.700000     1.050000
   -3.396382     1.633179    -0.198658     1.200000     1.050000
   -2.164097     1.304863     0.987620     1.200000     1.050000

--link1--
%chk=meso-TS_40_2_xp-100.chk
%nproc=24
%mem=48GB
#p uwb97xd guess=mix def2tzvp 
# scrf=(iefpcm,solvent=Cyclohexane,read) nosym guess=only pop=none 

endo-2
xp-pcm for eta=3

0 1
  6  -3.126891  -0.440888   0.255118 
  6  -0.684423  -0.239784  -1.165641 
  1  -4.081225  -0.540147   0.759340 
  1   0.279559  -0.151378  -1.650033 
  6   1.137152   1.419764   0.752892 
  6   0.684423   0.239784   1.165641 
  1   0.543796   2.316608   0.882649 
  1  -0.279559   0.151379   1.650033 
  6   1.527143  -0.999005   1.070559 
  1   2.027460  -1.119961   2.039740 
  1   0.894773  -1.877853   0.948868 
  6   2.443219   1.525992   0.104990 
  1   2.846024   2.512508  -0.091240 
  6   3.126891   0.440888  -0.255118 
  1   4.081225   0.540147  -0.759340 
  6   2.582831  -0.945113  -0.039623 
  1   2.164096  -1.304863  -0.987620 
  1   3.396382  -1.633179   0.198658 
  6  -1.137152  -1.419764  -0.752892 
  1  -0.543796  -2.316608  -0.882649 
  6  -2.443219  -1.525992  -0.104990 
  1  -2.846024  -2.512508   0.091240 
  6  -1.527143   0.999005  -1.070559 
  1  -0.894773   1.877853  -0.948868 
  1  -2.027460   1.119961  -2.039740 
  6  -2.582831   0.945113   0.039623 
  1  -3.396382   1.633179  -0.198658 
  1  -2.164097   1.304863   0.987620 

qrep pcmdoc geomview  nodis nocav g03defaults tsare=0.075 
nsfe=28
NVESolv=36  SolvMW=84.1595   Rsolv=2.815 
eps=2.0165 RhoS=0.7781

   -3.126891    -0.440888     0.255118     1.700000     1.000000
   -0.684423    -0.239784    -1.165641     1.700000     1.000000
   -4.081225    -0.540147     0.759340     1.200000     1.000000
    0.279559    -0.151378    -1.650033     1.200000     1.000000
    1.137152     1.419764     0.752892     1.700000     1.000000
    0.684423     0.239784     1.165641     1.700000     1.000000
    0.543796     2.316608     0.882649     1.200000     1.000000
   -0.279559     0.151379     1.650033     1.200000     1.000000
    1.527143    -0.999005     1.070559     1.700000     1.000000
    2.027460    -1.119961     2.039740     1.200000     1.000000
    0.894773    -1.877853     0.948868     1.200000     1.000000
    2.443219     1.525992     0.104990     1.700000     1.000000
    2.846024     2.512508    -0.091240     1.200000     1.000000
    3.126891     0.440888    -0.255118     1.700000     1.000000
    4.081225     0.540147    -0.759340     1.200000     1.000000
    2.582831    -0.945113    -0.039623     1.700000     1.000000
    2.164096    -1.304863    -0.987620     1.200000     1.000000
    3.396382    -1.633179     0.198658     1.200000     1.000000
   -1.137152    -1.419764    -0.752892     1.700000     1.000000
   -0.543796    -2.316608    -0.882649     1.200000     1.000000
   -2.443219    -1.525992    -0.104990     1.700000     1.000000
   -2.846024    -2.512508     0.091240     1.200000     1.000000
   -1.527143     0.999005    -1.070559     1.700000     1.000000
   -0.894773     1.877853    -0.948868     1.200000     1.000000
   -2.027460     1.119961    -2.039740     1.200000     1.000000
   -2.582831     0.945113     0.039623     1.700000     1.000000
   -3.396382     1.633179    -0.198658     1.200000     1.000000
   -2.164097     1.304863     0.987620     1.200000     1.000000

--link1--
%chk=meso-TS_40_2_xp-0975.chk
%nproc=24
%mem=48GB
#p uwb97xd guess=mix def2tzvp 
# scrf=(iefpcm,solvent=Cyclohexane,read) nosym guess=only pop=none 

endo-2
xp-pcm for eta=3

0 1
  6  -3.126891  -0.440888   0.255118 
  6  -0.684423  -0.239784  -1.165641 
  1  -4.081225  -0.540147   0.759340 
  1   0.279559  -0.151378  -1.650033 
  6   1.137152   1.419764   0.752892 
  6   0.684423   0.239784   1.165641 
  1   0.543796   2.316608   0.882649 
  1  -0.279559   0.151379   1.650033 
  6   1.527143  -0.999005   1.070559 
  1   2.027460  -1.119961   2.039740 
  1   0.894773  -1.877853   0.948868 
  6   2.443219   1.525992   0.104990 
  1   2.846024   2.512508  -0.091240 
  6   3.126891   0.440888  -0.255118 
  1   4.081225   0.540147  -0.759340 
  6   2.582831  -0.945113  -0.039623 
  1   2.164096  -1.304863  -0.987620 
  1   3.396382  -1.633179   0.198658 
  6  -1.137152  -1.419764  -0.752892 
  1  -0.543796  -2.316608  -0.882649 
  6  -2.443219  -1.525992  -0.104990 
  1  -2.846024  -2.512508   0.091240 
  6  -1.527143   0.999005  -1.070559 
  1  -0.894773   1.877853  -0.948868 
  1  -2.027460   1.119961  -2.039740 
  6  -2.582831   0.945113   0.039623 
  1  -3.396382   1.633179  -0.198658 
  1  -2.164097   1.304863   0.987620 

qrep pcmdoc geomview  nodis nocav g03defaults tsare=0.075 
nsfe=28
NVESolv=36  SolvMW=84.1595   Rsolv=2.815 
eps=2.0165 RhoS=0.7781

   -3.126891    -0.440888     0.255118     1.700000     0.975000
   -0.684423    -0.239784    -1.165641     1.700000     0.975000
   -4.081225    -0.540147     0.759340     1.200000     0.975000
    0.279559    -0.151378    -1.650033     1.200000     0.975000
    1.137152     1.419764     0.752892     1.700000     0.975000
    0.684423     0.239784     1.165641     1.700000     0.975000
    0.543796     2.316608     0.882649     1.200000     0.975000
   -0.279559     0.151379     1.650033     1.200000     0.975000
    1.527143    -0.999005     1.070559     1.700000     0.975000
    2.027460    -1.119961     2.039740     1.200000     0.975000
    0.894773    -1.877853     0.948868     1.200000     0.975000
    2.443219     1.525992     0.104990     1.700000     0.975000
    2.846024     2.512508    -0.091240     1.200000     0.975000
    3.126891     0.440888    -0.255118     1.700000     0.975000
    4.081225     0.540147    -0.759340     1.200000     0.975000
    2.582831    -0.945113    -0.039623     1.700000     0.975000
    2.164096    -1.304863    -0.987620     1.200000     0.975000
    3.396382    -1.633179     0.198658     1.200000     0.975000
   -1.137152    -1.419764    -0.752892     1.700000     0.975000
   -0.543796    -2.316608    -0.882649     1.200000     0.975000
   -2.443219    -1.525992    -0.104990     1.700000     0.975000
   -2.846024    -2.512508     0.091240     1.200000     0.975000
   -1.527143     0.999005    -1.070559     1.700000     0.975000
   -0.894773     1.877853    -0.948868     1.200000     0.975000
   -2.027460     1.119961    -2.039740     1.200000     0.975000
   -2.582831     0.945113     0.039623     1.700000     0.975000
   -3.396382     1.633179    -0.198658     1.200000     0.975000
   -2.164097     1.304863     0.987620     1.200000     0.975000

--link1--
%chk=meso-TS_40_2_xp-095.chk
%nproc=24
%mem=48GB
#p uwb97xd guess=mix def2tzvp 
# scrf=(iefpcm,solvent=Cyclohexane,read) nosym guess=only pop=none 

endo-2
xp-pcm for eta=3

0 1
  6  -3.126891  -0.440888   0.255118 
  6  -0.684423  -0.239784  -1.165641 
  1  -4.081225  -0.540147   0.759340 
  1   0.279559  -0.151378  -1.650033 
  6   1.137152   1.419764   0.752892 
  6   0.684423   0.239784   1.165641 
  1   0.543796   2.316608   0.882649 
  1  -0.279559   0.151379   1.650033 
  6   1.527143  -0.999005   1.070559 
  1   2.027460  -1.119961   2.039740 
  1   0.894773  -1.877853   0.948868 
  6   2.443219   1.525992   0.104990 
  1   2.846024   2.512508  -0.091240 
  6   3.126891   0.440888  -0.255118 
  1   4.081225   0.540147  -0.759340 
  6   2.582831  -0.945113  -0.039623 
  1   2.164096  -1.304863  -0.987620 
  1   3.396382  -1.633179   0.198658 
  6  -1.137152  -1.419764  -0.752892 
  1  -0.543796  -2.316608  -0.882649 
  6  -2.443219  -1.525992  -0.104990 
  1  -2.846024  -2.512508   0.091240 
  6  -1.527143   0.999005  -1.070559 
  1  -0.894773   1.877853  -0.948868 
  1  -2.027460   1.119961  -2.039740 
  6  -2.582831   0.945113   0.039623 
  1  -3.396382   1.633179  -0.198658 
  1  -2.164097   1.304863   0.987620 

qrep pcmdoc geomview  nodis nocav g03defaults tsare=0.075 
nsfe=28
NVESolv=36  SolvMW=84.1595   Rsolv=2.815 
eps=2.0165 RhoS=0.7781

   -3.126891    -0.440888     0.255118     1.700000     0.950000
   -0.684423    -0.239784    -1.165641     1.700000     0.950000
   -4.081225    -0.540147     0.759340     1.200000     0.950000
    0.279559    -0.151378    -1.650033     1.200000     0.950000
    1.137152     1.419764     0.752892     1.700000     0.950000
    0.684423     0.239784     1.165641     1.700000     0.950000
    0.543796     2.316608     0.882649     1.200000     0.950000
   -0.279559     0.151379     1.650033     1.200000     0.950000
    1.527143    -0.999005     1.070559     1.700000     0.950000
    2.027460    -1.119961     2.039740     1.200000     0.950000
    0.894773    -1.877853     0.948868     1.200000     0.950000
    2.443219     1.525992     0.104990     1.700000     0.950000
    2.846024     2.512508    -0.091240     1.200000     0.950000
    3.126891     0.440888    -0.255118     1.700000     0.950000
    4.081225     0.540147    -0.759340     1.200000     0.950000
    2.582831    -0.945113    -0.039623     1.700000     0.950000
    2.164096    -1.304863    -0.987620     1.200000     0.950000
    3.396382    -1.633179     0.198658     1.200000     0.950000
   -1.137152    -1.419764    -0.752892     1.700000     0.950000
   -0.543796    -2.316608    -0.882649     1.200000     0.950000
   -2.443219    -1.525992    -0.104990     1.700000     0.950000
   -2.846024    -2.512508     0.091240     1.200000     0.950000
   -1.527143     0.999005    -1.070559     1.700000     0.950000
   -0.894773     1.877853    -0.948868     1.200000     0.950000
   -2.027460     1.119961    -2.039740     1.200000     0.950000
   -2.582831     0.945113     0.039623     1.700000     0.950000
   -3.396382     1.633179    -0.198658     1.200000     0.950000
   -2.164097     1.304863     0.987620     1.200000     0.950000

