%chk=meso-TS_70_2_xp-12.chk
%nproc=24
%mem=48GB
#p uwb97xd guess=mix def2tzvp 
# scrf=(iefpcm,solvent=Cyclohexane,read) nosym 6d 10f 

endo-2
xp-pcm for eta=3

0 1
  6  -3.121942  -0.439924   0.277771 
  6  -0.797162  -0.267484  -1.333299 
  1  -4.044520  -0.521623   0.840727 
  1   0.132617  -0.192479  -1.884118 
  6   1.213684   1.436717   0.855014 
  6   0.797162   0.267484   1.333299 
  1   0.625474   2.334691   1.002965 
  1  -0.132617   0.192479   1.884118 
  6   1.625967  -0.975882   1.184356 
  1   2.219247  -1.095182   2.100353 
  1   0.977773  -1.851608   1.125614 
  6   2.478853   1.534377   0.125170 
  1   2.879166   2.517204  -0.093218 
  6   3.121942   0.439924  -0.277771 
  1   4.044520   0.521623  -0.840727 
  6   2.555680  -0.931899  -0.031548 
  1   2.009120  -1.243493  -0.930088 
  1   3.361336  -1.657785   0.093053 
  6  -1.213684  -1.436717  -0.855014 
  1  -0.625474  -2.334691  -1.002965 
  6  -2.478853  -1.534377  -0.125170 
  1  -2.879166  -2.517204   0.093218 
  6  -1.625967   0.975882  -1.184356 
  1  -0.977773   1.851608  -1.125614 
  1  -2.219247   1.095182  -2.100353 
  6  -2.555680   0.931899   0.031548 
  1  -3.361336   1.657785  -0.093053 
  1  -2.009120   1.243493   0.930088 

qrep pcmdoc geomview  nodis nocav g03defaults tsare=0.075 
nsfe=28
NVESolv=36  SolvMW=84.1595   Rsolv=2.815 
eps=2.0165 RhoS=0.778099999999998

   -3.121942    -0.439924     0.277771     1.700000     1.200000
   -0.797162    -0.267484    -1.333299     1.700000     1.200000
   -4.044520    -0.521623     0.840727     1.200000     1.200000
    0.132617    -0.192479    -1.884118     1.200000     1.200000
    1.213684     1.436717     0.855014     1.700000     1.200000
    0.797162     0.267484     1.333299     1.700000     1.200000
    0.625474     2.334691     1.002965     1.200000     1.200000
   -0.132617     0.192479     1.884118     1.200000     1.200000
    1.625967    -0.975882     1.184356     1.700000     1.200000
    2.219247    -1.095182     2.100353     1.200000     1.200000
    0.977773    -1.851608     1.125614     1.200000     1.200000
    2.478853     1.534377     0.125170     1.700000     1.200000
    2.879166     2.517204    -0.093218     1.200000     1.200000
    3.121942     0.439924    -0.277771     1.700000     1.200000
    4.044520     0.521623    -0.840727     1.200000     1.200000
    2.555680    -0.931899    -0.031548     1.700000     1.200000
    2.009120    -1.243493    -0.930088     1.200000     1.200000
    3.361336    -1.657785     0.093053     1.200000     1.200000
   -1.213684    -1.436717    -0.855014     1.700000     1.200000
   -0.625474    -2.334691    -1.002965     1.200000     1.200000
   -2.478853    -1.534377    -0.125170     1.700000     1.200000
   -2.879166    -2.517204     0.093218     1.200000     1.200000
   -1.625967     0.975882    -1.184356     1.700000     1.200000
   -0.977773     1.851608    -1.125614     1.200000     1.200000
   -2.219247     1.095182    -2.100353     1.200000     1.200000
   -2.555680     0.931899     0.031548     1.700000     1.200000
   -3.361336     1.657785    -0.093053     1.200000     1.200000
   -2.009120     1.243493     0.930088     1.200000     1.200000

--link1--
%chk=meso-TS_70_2_xp-115.chk
%nproc=24
%mem=48GB
#p uwb97xd guess=mix def2tzvp 
# scrf=(iefpcm,solvent=Cyclohexane,read) nosym 6d 10f 

endo-2
xp-pcm for eta=3

0 1
  6  -3.121942  -0.439924   0.277771 
  6  -0.797162  -0.267484  -1.333299 
  1  -4.044520  -0.521623   0.840727 
  1   0.132617  -0.192479  -1.884118 
  6   1.213684   1.436717   0.855014 
  6   0.797162   0.267484   1.333299 
  1   0.625474   2.334691   1.002965 
  1  -0.132617   0.192479   1.884118 
  6   1.625967  -0.975882   1.184356 
  1   2.219247  -1.095182   2.100353 
  1   0.977773  -1.851608   1.125614 
  6   2.478853   1.534377   0.125170 
  1   2.879166   2.517204  -0.093218 
  6   3.121942   0.439924  -0.277771 
  1   4.044520   0.521623  -0.840727 
  6   2.555680  -0.931899  -0.031548 
  1   2.009120  -1.243493  -0.930088 
  1   3.361336  -1.657785   0.093053 
  6  -1.213684  -1.436717  -0.855014 
  1  -0.625474  -2.334691  -1.002965 
  6  -2.478853  -1.534377  -0.125170 
  1  -2.879166  -2.517204   0.093218 
  6  -1.625967   0.975882  -1.184356 
  1  -0.977773   1.851608  -1.125614 
  1  -2.219247   1.095182  -2.100353 
  6  -2.555680   0.931899   0.031548 
  1  -3.361336   1.657785  -0.093053 
  1  -2.009120   1.243493   0.930088 

qrep pcmdoc geomview  nodis nocav g03defaults tsare=0.075 
nsfe=28
NVESolv=36  SolvMW=84.1595   Rsolv=2.815 
eps=2.08074995319988 RhoS=0.87957140140931

   -3.121942    -0.439924     0.277771     1.700000     1.150000
   -0.797162    -0.267484    -1.333299     1.700000     1.150000
   -4.044520    -0.521623     0.840727     1.200000     1.150000
    0.132617    -0.192479    -1.884118     1.200000     1.150000
    1.213684     1.436717     0.855014     1.700000     1.150000
    0.797162     0.267484     1.333299     1.700000     1.150000
    0.625474     2.334691     1.002965     1.200000     1.150000
   -0.132617     0.192479     1.884118     1.200000     1.150000
    1.625967    -0.975882     1.184356     1.700000     1.150000
    2.219247    -1.095182     2.100353     1.200000     1.150000
    0.977773    -1.851608     1.125614     1.200000     1.150000
    2.478853     1.534377     0.125170     1.700000     1.150000
    2.879166     2.517204    -0.093218     1.200000     1.150000
    3.121942     0.439924    -0.277771     1.700000     1.150000
    4.044520     0.521623    -0.840727     1.200000     1.150000
    2.555680    -0.931899    -0.031548     1.700000     1.150000
    2.009120    -1.243493    -0.930088     1.200000     1.150000
    3.361336    -1.657785     0.093053     1.200000     1.150000
   -1.213684    -1.436717    -0.855014     1.700000     1.150000
   -0.625474    -2.334691    -1.002965     1.200000     1.150000
   -2.478853    -1.534377    -0.125170     1.700000     1.150000
   -2.879166    -2.517204     0.093218     1.200000     1.150000
   -1.625967     0.975882    -1.184356     1.700000     1.150000
   -0.977773     1.851608    -1.125614     1.200000     1.150000
   -2.219247     1.095182    -2.100353     1.200000     1.150000
   -2.555680     0.931899     0.031548     1.700000     1.150000
   -3.361336     1.657785    -0.093053     1.200000     1.150000
   -2.009120     1.243493     0.930088     1.200000     1.150000

--link1--
%chk=meso-TS_70_2_xp-110.chk
%nproc=24
%mem=48GB
#p uwb97xd guess=mix def2tzvp 
# scrf=(iefpcm,solvent=Cyclohexane,read) nosym 6d 10f 

endo-2
xp-pcm for eta=3

0 1
  6  -3.121942  -0.439924   0.277771 
  6  -0.797162  -0.267484  -1.333299 
  1  -4.044520  -0.521623   0.840727 
  1   0.132617  -0.192479  -1.884118 
  6   1.213684   1.436717   0.855014 
  6   0.797162   0.267484   1.333299 
  1   0.625474   2.334691   1.002965 
  1  -0.132617   0.192479   1.884118 
  6   1.625967  -0.975882   1.184356 
  1   2.219247  -1.095182   2.100353 
  1   0.977773  -1.851608   1.125614 
  6   2.478853   1.534377   0.125170 
  1   2.879166   2.517204  -0.093218 
  6   3.121942   0.439924  -0.277771 
  1   4.044520   0.521623  -0.840727 
  6   2.555680  -0.931899  -0.031548 
  1   2.009120  -1.243493  -0.930088 
  1   3.361336  -1.657785   0.093053 
  6  -1.213684  -1.436717  -0.855014 
  1  -0.625474  -2.334691  -1.002965 
  6  -2.478853  -1.534377  -0.125170 
  1  -2.879166  -2.517204   0.093218 
  6  -1.625967   0.975882  -1.184356 
  1  -0.977773   1.851608  -1.125614 
  1  -2.219247   1.095182  -2.100353 
  6  -2.555680   0.931899   0.031548 
  1  -3.361336   1.657785  -0.093053 
  1  -2.009120   1.243493   0.930088 

qrep pcmdoc geomview  nodis nocav g03defaults tsare=0.075 
nsfe=28
NVESolv=36  SolvMW=84.1595   Rsolv=2.815 
eps=2.14797859684703 RhoS=0.992403372535132

   -3.121942    -0.439924     0.277771     1.700000     1.100000
   -0.797162    -0.267484    -1.333299     1.700000     1.100000
   -4.044520    -0.521623     0.840727     1.200000     1.100000
    0.132617    -0.192479    -1.884118     1.200000     1.100000
    1.213684     1.436717     0.855014     1.700000     1.100000
    0.797162     0.267484     1.333299     1.700000     1.100000
    0.625474     2.334691     1.002965     1.200000     1.100000
   -0.132617     0.192479     1.884118     1.200000     1.100000
    1.625967    -0.975882     1.184356     1.700000     1.100000
    2.219247    -1.095182     2.100353     1.200000     1.100000
    0.977773    -1.851608     1.125614     1.200000     1.100000
    2.478853     1.534377     0.125170     1.700000     1.100000
    2.879166     2.517204    -0.093218     1.200000     1.100000
    3.121942     0.439924    -0.277771     1.700000     1.100000
    4.044520     0.521623    -0.840727     1.200000     1.100000
    2.555680    -0.931899    -0.031548     1.700000     1.100000
    2.009120    -1.243493    -0.930088     1.200000     1.100000
    3.361336    -1.657785     0.093053     1.200000     1.100000
   -1.213684    -1.436717    -0.855014     1.700000     1.100000
   -0.625474    -2.334691    -1.002965     1.200000     1.100000
   -2.478853    -1.534377    -0.125170     1.700000     1.100000
   -2.879166    -2.517204     0.093218     1.200000     1.100000
   -1.625967     0.975882    -1.184356     1.700000     1.100000
   -0.977773     1.851608    -1.125614     1.200000     1.100000
   -2.219247     1.095182    -2.100353     1.200000     1.100000
   -2.555680     0.931899     0.031548     1.700000     1.100000
   -3.361336     1.657785    -0.093053     1.200000     1.100000
   -2.009120     1.243493     0.930088     1.200000     1.100000

--link1--
%chk=meso-TS_70_2_xp-105.chk
%nproc=24
%mem=48GB
#p uwb97xd guess=mix def2tzvp 
# scrf=(iefpcm,solvent=Cyclohexane,read) nosym 6d 10f 

endo-2
xp-pcm for eta=3

0 1
  6  -3.121942  -0.439924   0.277771 
  6  -0.797162  -0.267484  -1.333299 
  1  -4.044520  -0.521623   0.840727 
  1   0.132617  -0.192479  -1.884118 
  6   1.213684   1.436717   0.855014 
  6   0.797162   0.267484   1.333299 
  1   0.625474   2.334691   1.002965 
  1  -0.132617   0.192479   1.884118 
  6   1.625967  -0.975882   1.184356 
  1   2.219247  -1.095182   2.100353 
  1   0.977773  -1.851608   1.125614 
  6   2.478853   1.534377   0.125170 
  1   2.879166   2.517204  -0.093218 
  6   3.121942   0.439924  -0.277771 
  1   4.044520   0.521623  -0.840727 
  6   2.555680  -0.931899  -0.031548 
  1   2.009120  -1.243493  -0.930088 
  1   3.361336  -1.657785   0.093053 
  6  -1.213684  -1.436717  -0.855014 
  1  -0.625474  -2.334691  -1.002965 
  6  -2.478853  -1.534377  -0.125170 
  1  -2.879166  -2.517204   0.093218 
  6  -1.625967   0.975882  -1.184356 
  1  -0.977773   1.851608  -1.125614 
  1  -2.219247   1.095182  -2.100353 
  6  -2.555680   0.931899   0.031548 
  1  -3.361336   1.657785  -0.093053 
  1  -2.009120   1.243493   0.930088 

qrep pcmdoc geomview  nodis nocav g03defaults tsare=0.075 
nsfe=28
NVESolv=36  SolvMW=84.1595   Rsolv=2.815 
eps=2.22376880117094 RhoS=1.12776705486046

   -3.121942    -0.439924     0.277771     1.700000     1.050000
   -0.797162    -0.267484    -1.333299     1.700000     1.050000
   -4.044520    -0.521623     0.840727     1.200000     1.050000
    0.132617    -0.192479    -1.884118     1.200000     1.050000
    1.213684     1.436717     0.855014     1.700000     1.050000
    0.797162     0.267484     1.333299     1.700000     1.050000
    0.625474     2.334691     1.002965     1.200000     1.050000
   -0.132617     0.192479     1.884118     1.200000     1.050000
    1.625967    -0.975882     1.184356     1.700000     1.050000
    2.219247    -1.095182     2.100353     1.200000     1.050000
    0.977773    -1.851608     1.125614     1.200000     1.050000
    2.478853     1.534377     0.125170     1.700000     1.050000
    2.879166     2.517204    -0.093218     1.200000     1.050000
    3.121942     0.439924    -0.277771     1.700000     1.050000
    4.044520     0.521623    -0.840727     1.200000     1.050000
    2.555680    -0.931899    -0.031548     1.700000     1.050000
    2.009120    -1.243493    -0.930088     1.200000     1.050000
    3.361336    -1.657785     0.093053     1.200000     1.050000
   -1.213684    -1.436717    -0.855014     1.700000     1.050000
   -0.625474    -2.334691    -1.002965     1.200000     1.050000
   -2.478853    -1.534377    -0.125170     1.700000     1.050000
   -2.879166    -2.517204     0.093218     1.200000     1.050000
   -1.625967     0.975882    -1.184356     1.700000     1.050000
   -0.977773     1.851608    -1.125614     1.200000     1.050000
   -2.219247     1.095182    -2.100353     1.200000     1.050000
   -2.555680     0.931899     0.031548     1.700000     1.050000
   -3.361336     1.657785    -0.093053     1.200000     1.050000
   -2.009120     1.243493     0.930088     1.200000     1.050000

--link1--
%chk=meso-TS_70_2_xp-100.chk
%nproc=24
%mem=48GB
#p uwb97xd guess=mix def2tzvp 
# scrf=(iefpcm,solvent=Cyclohexane,read) nosym 6d 10f 

endo-2
xp-pcm for eta=3

0 1
  6  -3.121942  -0.439924   0.277771 
  6  -0.797162  -0.267484  -1.333299 
  1  -4.044520  -0.521623   0.840727 
  1   0.132617  -0.192479  -1.884118 
  6   1.213684   1.436717   0.855014 
  6   0.797162   0.267484   1.333299 
  1   0.625474   2.334691   1.002965 
  1  -0.132617   0.192479   1.884118 
  6   1.625967  -0.975882   1.184356 
  1   2.219247  -1.095182   2.100353 
  1   0.977773  -1.851608   1.125614 
  6   2.478853   1.534377   0.125170 
  1   2.879166   2.517204  -0.093218 
  6   3.121942   0.439924  -0.277771 
  1   4.044520   0.521623  -0.840727 
  6   2.555680  -0.931899  -0.031548 
  1   2.009120  -1.243493  -0.930088 
  1   3.361336  -1.657785   0.093053 
  6  -1.213684  -1.436717  -0.855014 
  1  -0.625474  -2.334691  -1.002965 
  6  -2.478853  -1.534377  -0.125170 
  1  -2.879166  -2.517204   0.093218 
  6  -1.625967   0.975882  -1.184356 
  1  -0.977773   1.851608  -1.125614 
  1  -2.219247   1.095182  -2.100353 
  6  -2.555680   0.931899   0.031548 
  1  -3.361336   1.657785  -0.093053 
  1  -2.009120   1.243493   0.930088 

qrep pcmdoc geomview  nodis nocav g03defaults tsare=0.075 
nsfe=28
NVESolv=36  SolvMW=84.1595   Rsolv=2.815 
eps=2.30480546666792 RhoS=1.28207131826017

   -3.121942    -0.439924     0.277771     1.700000     1.000000
   -0.797162    -0.267484    -1.333299     1.700000     1.000000
   -4.044520    -0.521623     0.840727     1.200000     1.000000
    0.132617    -0.192479    -1.884118     1.200000     1.000000
    1.213684     1.436717     0.855014     1.700000     1.000000
    0.797162     0.267484     1.333299     1.700000     1.000000
    0.625474     2.334691     1.002965     1.200000     1.000000
   -0.132617     0.192479     1.884118     1.200000     1.000000
    1.625967    -0.975882     1.184356     1.700000     1.000000
    2.219247    -1.095182     2.100353     1.200000     1.000000
    0.977773    -1.851608     1.125614     1.200000     1.000000
    2.478853     1.534377     0.125170     1.700000     1.000000
    2.879166     2.517204    -0.093218     1.200000     1.000000
    3.121942     0.439924    -0.277771     1.700000     1.000000
    4.044520     0.521623    -0.840727     1.200000     1.000000
    2.555680    -0.931899    -0.031548     1.700000     1.000000
    2.009120    -1.243493    -0.930088     1.200000     1.000000
    3.361336    -1.657785     0.093053     1.200000     1.000000
   -1.213684    -1.436717    -0.855014     1.700000     1.000000
   -0.625474    -2.334691    -1.002965     1.200000     1.000000
   -2.478853    -1.534377    -0.125170     1.700000     1.000000
   -2.879166    -2.517204     0.093218     1.200000     1.000000
   -1.625967     0.975882    -1.184356     1.700000     1.000000
   -0.977773     1.851608    -1.125614     1.200000     1.000000
   -2.219247     1.095182    -2.100353     1.200000     1.000000
   -2.555680     0.931899     0.031548     1.700000     1.000000
   -3.361336     1.657785    -0.093053     1.200000     1.000000
   -2.009120     1.243493     0.930088     1.200000     1.000000

--link1--
%chk=meso-TS_70_2_xp-0975.chk
%nproc=24
%mem=48GB
#p uwb97xd guess=mix def2tzvp 
# scrf=(iefpcm,solvent=Cyclohexane,read) nosym 6d 10f 

endo-2
xp-pcm for eta=3

0 1
  6  -3.121942  -0.439924   0.277771 
  6  -0.797162  -0.267484  -1.333299 
  1  -4.044520  -0.521623   0.840727 
  1   0.132617  -0.192479  -1.884118 
  6   1.213684   1.436717   0.855014 
  6   0.797162   0.267484   1.333299 
  1   0.625474   2.334691   1.002965 
  1  -0.132617   0.192479   1.884118 
  6   1.625967  -0.975882   1.184356 
  1   2.219247  -1.095182   2.100353 
  1   0.977773  -1.851608   1.125614 
  6   2.478853   1.534377   0.125170 
  1   2.879166   2.517204  -0.093218 
  6   3.121942   0.439924  -0.277771 
  1   4.044520   0.521623  -0.840727 
  6   2.555680  -0.931899  -0.031548 
  1   2.009120  -1.243493  -0.930088 
  1   3.361336  -1.657785   0.093053 
  6  -1.213684  -1.436717  -0.855014 
  1  -0.625474  -2.334691  -1.002965 
  6  -2.478853  -1.534377  -0.125170 
  1  -2.879166  -2.517204   0.093218 
  6  -1.625967   0.975882  -1.184356 
  1  -0.977773   1.851608  -1.125614 
  1  -2.219247   1.095182  -2.100353 
  6  -2.555680   0.931899   0.031548 
  1  -3.361336   1.657785  -0.093053 
  1  -2.009120   1.243493   0.930088 

qrep pcmdoc geomview  nodis nocav g03defaults tsare=0.075 
nsfe=28
NVESolv=36  SolvMW=84.1595   Rsolv=2.815 
eps=2.34745273026226 RhoS=1.36724935387803

   -3.121942    -0.439924     0.277771     1.700000     0.975000
   -0.797162    -0.267484    -1.333299     1.700000     0.975000
   -4.044520    -0.521623     0.840727     1.200000     0.975000
    0.132617    -0.192479    -1.884118     1.200000     0.975000
    1.213684     1.436717     0.855014     1.700000     0.975000
    0.797162     0.267484     1.333299     1.700000     0.975000
    0.625474     2.334691     1.002965     1.200000     0.975000
   -0.132617     0.192479     1.884118     1.200000     0.975000
    1.625967    -0.975882     1.184356     1.700000     0.975000
    2.219247    -1.095182     2.100353     1.200000     0.975000
    0.977773    -1.851608     1.125614     1.200000     0.975000
    2.478853     1.534377     0.125170     1.700000     0.975000
    2.879166     2.517204    -0.093218     1.200000     0.975000
    3.121942     0.439924    -0.277771     1.700000     0.975000
    4.044520     0.521623    -0.840727     1.200000     0.975000
    2.555680    -0.931899    -0.031548     1.700000     0.975000
    2.009120    -1.243493    -0.930088     1.200000     0.975000
    3.361336    -1.657785     0.093053     1.200000     0.975000
   -1.213684    -1.436717    -0.855014     1.700000     0.975000
   -0.625474    -2.334691    -1.002965     1.200000     0.975000
   -2.478853    -1.534377    -0.125170     1.700000     0.975000
   -2.879166    -2.517204     0.093218     1.200000     0.975000
   -1.625967     0.975882    -1.184356     1.700000     0.975000
   -0.977773     1.851608    -1.125614     1.200000     0.975000
   -2.219247     1.095182    -2.100353     1.200000     0.975000
   -2.555680     0.931899     0.031548     1.700000     0.975000
   -3.361336     1.657785    -0.093053     1.200000     0.975000
   -2.009120     1.243493     0.930088     1.200000     0.975000

--link1--
%chk=meso-TS_70_2_xp-095.chk
%nproc=24
%mem=48GB
#p uwb97xd guess=mix def2tzvp 
# scrf=(iefpcm,solvent=Cyclohexane,read) nosym 6d 10f 

endo-2
xp-pcm for eta=3

0 1
  6  -3.121942  -0.439924   0.277771 
  6  -0.797162  -0.267484  -1.333299 
  1  -4.044520  -0.521623   0.840727 
  1   0.132617  -0.192479  -1.884118 
  6   1.213684   1.436717   0.855014 
  6   0.797162   0.267484   1.333299 
  1   0.625474   2.334691   1.002965 
  1  -0.132617   0.192479   1.884118 
  6   1.625967  -0.975882   1.184356 
  1   2.219247  -1.095182   2.100353 
  1   0.977773  -1.851608   1.125614 
  6   2.478853   1.534377   0.125170 
  1   2.879166   2.517204  -0.093218 
  6   3.121942   0.439924  -0.277771 
  1   4.044520   0.521623  -0.840727 
  6   2.555680  -0.931899  -0.031548 
  1   2.009120  -1.243493  -0.930088 
  1   3.361336  -1.657785   0.093053 
  6  -1.213684  -1.436717  -0.855014 
  1  -0.625474  -2.334691  -1.002965 
  6  -2.478853  -1.534377  -0.125170 
  1  -2.879166  -2.517204   0.093218 
  6  -1.625967   0.975882  -1.184356 
  1  -0.977773   1.851608  -1.125614 
  1  -2.219247   1.095182  -2.100353 
  6  -2.555680   0.931899   0.031548 
  1  -3.361336   1.657785  -0.093053 
  1  -2.009120   1.243493   0.930088 

qrep pcmdoc geomview  nodis nocav g03defaults tsare=0.075 
nsfe=28
NVESolv=36  SolvMW=84.1595   Rsolv=2.815 
eps=2.39339884323873 RhoS=1.4620813611373

   -3.121942    -0.439924     0.277771     1.700000     0.950000
   -0.797162    -0.267484    -1.333299     1.700000     0.950000
   -4.044520    -0.521623     0.840727     1.200000     0.950000
    0.132617    -0.192479    -1.884118     1.200000     0.950000
    1.213684     1.436717     0.855014     1.700000     0.950000
    0.797162     0.267484     1.333299     1.700000     0.950000
    0.625474     2.334691     1.002965     1.200000     0.950000
   -0.132617     0.192479     1.884118     1.200000     0.950000
    1.625967    -0.975882     1.184356     1.700000     0.950000
    2.219247    -1.095182     2.100353     1.200000     0.950000
    0.977773    -1.851608     1.125614     1.200000     0.950000
    2.478853     1.534377     0.125170     1.700000     0.950000
    2.879166     2.517204    -0.093218     1.200000     0.950000
    3.121942     0.439924    -0.277771     1.700000     0.950000
    4.044520     0.521623    -0.840727     1.200000     0.950000
    2.555680    -0.931899    -0.031548     1.700000     0.950000
    2.009120    -1.243493    -0.930088     1.200000     0.950000
    3.361336    -1.657785     0.093053     1.200000     0.950000
   -1.213684    -1.436717    -0.855014     1.700000     0.950000
   -0.625474    -2.334691    -1.002965     1.200000     0.950000
   -2.478853    -1.534377    -0.125170     1.700000     0.950000
   -2.879166    -2.517204     0.093218     1.200000     0.950000
   -1.625967     0.975882    -1.184356     1.700000     0.950000
   -0.977773     1.851608    -1.125614     1.200000     0.950000
   -2.219247     1.095182    -2.100353     1.200000     0.950000
   -2.555680     0.931899     0.031548     1.700000     0.950000
   -3.361336     1.657785    -0.093053     1.200000     0.950000
   -2.009120     1.243493     0.930088     1.200000     0.950000

