%chk=meso-TS_85_2_xp-12.chk
%nproc=24
%mem=48GB
#p uwb97xd guess=mix def2tzvp 
# scrf=(iefpcm,solvent=Cyclohexane,read) nosym guess=only pop=none 

endo-2
xp-pcm for eta=3

0 1
  6  -3.106560  -0.437378   0.291938 
  6  -0.848443  -0.283188  -1.412362 
  1  -4.009580  -0.509623   0.886930 
  1   0.059937  -0.215575  -1.999027 
  6   1.250446   1.448137   0.910401 
  6   0.848443   0.283188   1.412362 
  1   0.670918   2.349204   1.073365 
  1  -0.059937   0.215575   1.999027 
  6   1.671088  -0.961349   1.237510 
  1   2.316912  -1.067273   2.119278 
  1   1.024124  -1.840049   1.224471 
  6   2.491494   1.537477   0.138807 
  1   2.894509   2.517243  -0.088123 
  6   3.106560   0.437378  -0.291938 
  1   4.009580   0.509623  -0.886930 
  6   2.527393  -0.925952  -0.029998 
  1   1.916886  -1.211409  -0.895423 
  1   3.321807  -1.671334   0.037592 
  6  -1.250446  -1.448137  -0.910401 
  1  -0.670918  -2.349204  -1.073365 
  6  -2.491494  -1.537477  -0.138807 
  1  -2.894509  -2.517243   0.088123 
  6  -1.671088   0.961349  -1.237510 
  1  -1.024124   1.840049  -1.224471 
  1  -2.316912   1.067273  -2.119278 
  6  -2.527393   0.925952   0.029998 
  1  -3.321807   1.671334  -0.037592 
  1  -1.916886   1.211409   0.895423 

qrep pcmdoc geomview  nodis nocav g03defaults tsare=0.075 
nsfe=28
NVESolv=36  SolvMW=84.1595   Rsolv=2.815 
eps=2.0165 RhoS=0.7781

   -3.106560    -0.437378     0.291938     1.700000     1.200000
   -0.848443    -0.283188    -1.412362     1.700000     1.200000
   -4.009580    -0.509623     0.886930     1.200000     1.200000
    0.059937    -0.215575    -1.999027     1.200000     1.200000
    1.250446     1.448137     0.910401     1.700000     1.200000
    0.848443     0.283188     1.412362     1.700000     1.200000
    0.670918     2.349204     1.073365     1.200000     1.200000
   -0.059937     0.215575     1.999027     1.200000     1.200000
    1.671088    -0.961349     1.237510     1.700000     1.200000
    2.316912    -1.067273     2.119278     1.200000     1.200000
    1.024124    -1.840049     1.224471     1.200000     1.200000
    2.491494     1.537477     0.138807     1.700000     1.200000
    2.894509     2.517243    -0.088123     1.200000     1.200000
    3.106560     0.437378    -0.291938     1.700000     1.200000
    4.009580     0.509623    -0.886930     1.200000     1.200000
    2.527393    -0.925952    -0.029998     1.700000     1.200000
    1.916886    -1.211409    -0.895423     1.200000     1.200000
    3.321807    -1.671334     0.037592     1.200000     1.200000
   -1.250446    -1.448137    -0.910401     1.700000     1.200000
   -0.670918    -2.349204    -1.073365     1.200000     1.200000
   -2.491494    -1.537477    -0.138807     1.700000     1.200000
   -2.894509    -2.517243     0.088123     1.200000     1.200000
   -1.671088     0.961349    -1.237510     1.700000     1.200000
   -1.024124     1.840049    -1.224471     1.200000     1.200000
   -2.316912     1.067273    -2.119278     1.200000     1.200000
   -2.527393     0.925952     0.029998     1.700000     1.200000
   -3.321807     1.671334    -0.037592     1.200000     1.200000
   -1.916886     1.211409     0.895423     1.200000     1.200000

--link1--
%chk=meso-TS_85_2_xp-115.chk
%nproc=24
%mem=48GB
#p uwb97xd guess=mix def2tzvp 
# scrf=(iefpcm,solvent=Cyclohexane,read) nosym guess=only pop=none 

endo-2
xp-pcm for eta=3

0 1
  6  -3.106560  -0.437378   0.291938 
  6  -0.848443  -0.283188  -1.412362 
  1  -4.009580  -0.509623   0.886930 
  1   0.059937  -0.215575  -1.999027 
  6   1.250446   1.448137   0.910401 
  6   0.848443   0.283188   1.412362 
  1   0.670918   2.349204   1.073365 
  1  -0.059937   0.215575   1.999027 
  6   1.671088  -0.961349   1.237510 
  1   2.316912  -1.067273   2.119278 
  1   1.024124  -1.840049   1.224471 
  6   2.491494   1.537477   0.138807 
  1   2.894509   2.517243  -0.088123 
  6   3.106560   0.437378  -0.291938 
  1   4.009580   0.509623  -0.886930 
  6   2.527393  -0.925952  -0.029998 
  1   1.916886  -1.211409  -0.895423 
  1   3.321807  -1.671334   0.037592 
  6  -1.250446  -1.448137  -0.910401 
  1  -0.670918  -2.349204  -1.073365 
  6  -2.491494  -1.537477  -0.138807 
  1  -2.894509  -2.517243   0.088123 
  6  -1.671088   0.961349  -1.237510 
  1  -1.024124   1.840049  -1.224471 
  1  -2.316912   1.067273  -2.119278 
  6  -2.527393   0.925952   0.029998 
  1  -3.321807   1.671334  -0.037592 
  1  -1.916886   1.211409   0.895423 

qrep pcmdoc geomview  nodis nocav g03defaults tsare=0.075 
nsfe=28
NVESolv=36  SolvMW=84.1595   Rsolv=2.815 
eps=2.0165 RhoS=0.7781

   -3.106560    -0.437378     0.291938     1.700000     1.150000
   -0.848443    -0.283188    -1.412362     1.700000     1.150000
   -4.009580    -0.509623     0.886930     1.200000     1.150000
    0.059937    -0.215575    -1.999027     1.200000     1.150000
    1.250446     1.448137     0.910401     1.700000     1.150000
    0.848443     0.283188     1.412362     1.700000     1.150000
    0.670918     2.349204     1.073365     1.200000     1.150000
   -0.059937     0.215575     1.999027     1.200000     1.150000
    1.671088    -0.961349     1.237510     1.700000     1.150000
    2.316912    -1.067273     2.119278     1.200000     1.150000
    1.024124    -1.840049     1.224471     1.200000     1.150000
    2.491494     1.537477     0.138807     1.700000     1.150000
    2.894509     2.517243    -0.088123     1.200000     1.150000
    3.106560     0.437378    -0.291938     1.700000     1.150000
    4.009580     0.509623    -0.886930     1.200000     1.150000
    2.527393    -0.925952    -0.029998     1.700000     1.150000
    1.916886    -1.211409    -0.895423     1.200000     1.150000
    3.321807    -1.671334     0.037592     1.200000     1.150000
   -1.250446    -1.448137    -0.910401     1.700000     1.150000
   -0.670918    -2.349204    -1.073365     1.200000     1.150000
   -2.491494    -1.537477    -0.138807     1.700000     1.150000
   -2.894509    -2.517243     0.088123     1.200000     1.150000
   -1.671088     0.961349    -1.237510     1.700000     1.150000
   -1.024124     1.840049    -1.224471     1.200000     1.150000
   -2.316912     1.067273    -2.119278     1.200000     1.150000
   -2.527393     0.925952     0.029998     1.700000     1.150000
   -3.321807     1.671334    -0.037592     1.200000     1.150000
   -1.916886     1.211409     0.895423     1.200000     1.150000

--link1--
%chk=meso-TS_85_2_xp-110.chk
%nproc=24
%mem=48GB
#p uwb97xd guess=mix def2tzvp 
# scrf=(iefpcm,solvent=Cyclohexane,read) nosym guess=only pop=none 

endo-2
xp-pcm for eta=3

0 1
  6  -3.106560  -0.437378   0.291938 
  6  -0.848443  -0.283188  -1.412362 
  1  -4.009580  -0.509623   0.886930 
  1   0.059937  -0.215575  -1.999027 
  6   1.250446   1.448137   0.910401 
  6   0.848443   0.283188   1.412362 
  1   0.670918   2.349204   1.073365 
  1  -0.059937   0.215575   1.999027 
  6   1.671088  -0.961349   1.237510 
  1   2.316912  -1.067273   2.119278 
  1   1.024124  -1.840049   1.224471 
  6   2.491494   1.537477   0.138807 
  1   2.894509   2.517243  -0.088123 
  6   3.106560   0.437378  -0.291938 
  1   4.009580   0.509623  -0.886930 
  6   2.527393  -0.925952  -0.029998 
  1   1.916886  -1.211409  -0.895423 
  1   3.321807  -1.671334   0.037592 
  6  -1.250446  -1.448137  -0.910401 
  1  -0.670918  -2.349204  -1.073365 
  6  -2.491494  -1.537477  -0.138807 
  1  -2.894509  -2.517243   0.088123 
  6  -1.671088   0.961349  -1.237510 
  1  -1.024124   1.840049  -1.224471 
  1  -2.316912   1.067273  -2.119278 
  6  -2.527393   0.925952   0.029998 
  1  -3.321807   1.671334  -0.037592 
  1  -1.916886   1.211409   0.895423 

qrep pcmdoc geomview  nodis nocav g03defaults tsare=0.075 
nsfe=28
NVESolv=36  SolvMW=84.1595   Rsolv=2.815 
eps=2.0165 RhoS=0.7781

   -3.106560    -0.437378     0.291938     1.700000     1.100000
   -0.848443    -0.283188    -1.412362     1.700000     1.100000
   -4.009580    -0.509623     0.886930     1.200000     1.100000
    0.059937    -0.215575    -1.999027     1.200000     1.100000
    1.250446     1.448137     0.910401     1.700000     1.100000
    0.848443     0.283188     1.412362     1.700000     1.100000
    0.670918     2.349204     1.073365     1.200000     1.100000
   -0.059937     0.215575     1.999027     1.200000     1.100000
    1.671088    -0.961349     1.237510     1.700000     1.100000
    2.316912    -1.067273     2.119278     1.200000     1.100000
    1.024124    -1.840049     1.224471     1.200000     1.100000
    2.491494     1.537477     0.138807     1.700000     1.100000
    2.894509     2.517243    -0.088123     1.200000     1.100000
    3.106560     0.437378    -0.291938     1.700000     1.100000
    4.009580     0.509623    -0.886930     1.200000     1.100000
    2.527393    -0.925952    -0.029998     1.700000     1.100000
    1.916886    -1.211409    -0.895423     1.200000     1.100000
    3.321807    -1.671334     0.037592     1.200000     1.100000
   -1.250446    -1.448137    -0.910401     1.700000     1.100000
   -0.670918    -2.349204    -1.073365     1.200000     1.100000
   -2.491494    -1.537477    -0.138807     1.700000     1.100000
   -2.894509    -2.517243     0.088123     1.200000     1.100000
   -1.671088     0.961349    -1.237510     1.700000     1.100000
   -1.024124     1.840049    -1.224471     1.200000     1.100000
   -2.316912     1.067273    -2.119278     1.200000     1.100000
   -2.527393     0.925952     0.029998     1.700000     1.100000
   -3.321807     1.671334    -0.037592     1.200000     1.100000
   -1.916886     1.211409     0.895423     1.200000     1.100000

--link1--
%chk=meso-TS_85_2_xp-105.chk
%nproc=24
%mem=48GB
#p uwb97xd guess=mix def2tzvp 
# scrf=(iefpcm,solvent=Cyclohexane,read) nosym guess=only pop=none 

endo-2
xp-pcm for eta=3

0 1
  6  -3.106560  -0.437378   0.291938 
  6  -0.848443  -0.283188  -1.412362 
  1  -4.009580  -0.509623   0.886930 
  1   0.059937  -0.215575  -1.999027 
  6   1.250446   1.448137   0.910401 
  6   0.848443   0.283188   1.412362 
  1   0.670918   2.349204   1.073365 
  1  -0.059937   0.215575   1.999027 
  6   1.671088  -0.961349   1.237510 
  1   2.316912  -1.067273   2.119278 
  1   1.024124  -1.840049   1.224471 
  6   2.491494   1.537477   0.138807 
  1   2.894509   2.517243  -0.088123 
  6   3.106560   0.437378  -0.291938 
  1   4.009580   0.509623  -0.886930 
  6   2.527393  -0.925952  -0.029998 
  1   1.916886  -1.211409  -0.895423 
  1   3.321807  -1.671334   0.037592 
  6  -1.250446  -1.448137  -0.910401 
  1  -0.670918  -2.349204  -1.073365 
  6  -2.491494  -1.537477  -0.138807 
  1  -2.894509  -2.517243   0.088123 
  6  -1.671088   0.961349  -1.237510 
  1  -1.024124   1.840049  -1.224471 
  1  -2.316912   1.067273  -2.119278 
  6  -2.527393   0.925952   0.029998 
  1  -3.321807   1.671334  -0.037592 
  1  -1.916886   1.211409   0.895423 

qrep pcmdoc geomview  nodis nocav g03defaults tsare=0.075 
nsfe=28
NVESolv=36  SolvMW=84.1595   Rsolv=2.815 
eps=2.0165 RhoS=0.7781

   -3.106560    -0.437378     0.291938     1.700000     1.050000
   -0.848443    -0.283188    -1.412362     1.700000     1.050000
   -4.009580    -0.509623     0.886930     1.200000     1.050000
    0.059937    -0.215575    -1.999027     1.200000     1.050000
    1.250446     1.448137     0.910401     1.700000     1.050000
    0.848443     0.283188     1.412362     1.700000     1.050000
    0.670918     2.349204     1.073365     1.200000     1.050000
   -0.059937     0.215575     1.999027     1.200000     1.050000
    1.671088    -0.961349     1.237510     1.700000     1.050000
    2.316912    -1.067273     2.119278     1.200000     1.050000
    1.024124    -1.840049     1.224471     1.200000     1.050000
    2.491494     1.537477     0.138807     1.700000     1.050000
    2.894509     2.517243    -0.088123     1.200000     1.050000
    3.106560     0.437378    -0.291938     1.700000     1.050000
    4.009580     0.509623    -0.886930     1.200000     1.050000
    2.527393    -0.925952    -0.029998     1.700000     1.050000
    1.916886    -1.211409    -0.895423     1.200000     1.050000
    3.321807    -1.671334     0.037592     1.200000     1.050000
   -1.250446    -1.448137    -0.910401     1.700000     1.050000
   -0.670918    -2.349204    -1.073365     1.200000     1.050000
   -2.491494    -1.537477    -0.138807     1.700000     1.050000
   -2.894509    -2.517243     0.088123     1.200000     1.050000
   -1.671088     0.961349    -1.237510     1.700000     1.050000
   -1.024124     1.840049    -1.224471     1.200000     1.050000
   -2.316912     1.067273    -2.119278     1.200000     1.050000
   -2.527393     0.925952     0.029998     1.700000     1.050000
   -3.321807     1.671334    -0.037592     1.200000     1.050000
   -1.916886     1.211409     0.895423     1.200000     1.050000

--link1--
%chk=meso-TS_85_2_xp-100.chk
%nproc=24
%mem=48GB
#p uwb97xd guess=mix def2tzvp 
# scrf=(iefpcm,solvent=Cyclohexane,read) nosym guess=only pop=none 

endo-2
xp-pcm for eta=3

0 1
  6  -3.106560  -0.437378   0.291938 
  6  -0.848443  -0.283188  -1.412362 
  1  -4.009580  -0.509623   0.886930 
  1   0.059937  -0.215575  -1.999027 
  6   1.250446   1.448137   0.910401 
  6   0.848443   0.283188   1.412362 
  1   0.670918   2.349204   1.073365 
  1  -0.059937   0.215575   1.999027 
  6   1.671088  -0.961349   1.237510 
  1   2.316912  -1.067273   2.119278 
  1   1.024124  -1.840049   1.224471 
  6   2.491494   1.537477   0.138807 
  1   2.894509   2.517243  -0.088123 
  6   3.106560   0.437378  -0.291938 
  1   4.009580   0.509623  -0.886930 
  6   2.527393  -0.925952  -0.029998 
  1   1.916886  -1.211409  -0.895423 
  1   3.321807  -1.671334   0.037592 
  6  -1.250446  -1.448137  -0.910401 
  1  -0.670918  -2.349204  -1.073365 
  6  -2.491494  -1.537477  -0.138807 
  1  -2.894509  -2.517243   0.088123 
  6  -1.671088   0.961349  -1.237510 
  1  -1.024124   1.840049  -1.224471 
  1  -2.316912   1.067273  -2.119278 
  6  -2.527393   0.925952   0.029998 
  1  -3.321807   1.671334  -0.037592 
  1  -1.916886   1.211409   0.895423 

qrep pcmdoc geomview  nodis nocav g03defaults tsare=0.075 
nsfe=28
NVESolv=36  SolvMW=84.1595   Rsolv=2.815 
eps=2.0165 RhoS=0.7781

   -3.106560    -0.437378     0.291938     1.700000     1.000000
   -0.848443    -0.283188    -1.412362     1.700000     1.000000
   -4.009580    -0.509623     0.886930     1.200000     1.000000
    0.059937    -0.215575    -1.999027     1.200000     1.000000
    1.250446     1.448137     0.910401     1.700000     1.000000
    0.848443     0.283188     1.412362     1.700000     1.000000
    0.670918     2.349204     1.073365     1.200000     1.000000
   -0.059937     0.215575     1.999027     1.200000     1.000000
    1.671088    -0.961349     1.237510     1.700000     1.000000
    2.316912    -1.067273     2.119278     1.200000     1.000000
    1.024124    -1.840049     1.224471     1.200000     1.000000
    2.491494     1.537477     0.138807     1.700000     1.000000
    2.894509     2.517243    -0.088123     1.200000     1.000000
    3.106560     0.437378    -0.291938     1.700000     1.000000
    4.009580     0.509623    -0.886930     1.200000     1.000000
    2.527393    -0.925952    -0.029998     1.700000     1.000000
    1.916886    -1.211409    -0.895423     1.200000     1.000000
    3.321807    -1.671334     0.037592     1.200000     1.000000
   -1.250446    -1.448137    -0.910401     1.700000     1.000000
   -0.670918    -2.349204    -1.073365     1.200000     1.000000
   -2.491494    -1.537477    -0.138807     1.700000     1.000000
   -2.894509    -2.517243     0.088123     1.200000     1.000000
   -1.671088     0.961349    -1.237510     1.700000     1.000000
   -1.024124     1.840049    -1.224471     1.200000     1.000000
   -2.316912     1.067273    -2.119278     1.200000     1.000000
   -2.527393     0.925952     0.029998     1.700000     1.000000
   -3.321807     1.671334    -0.037592     1.200000     1.000000
   -1.916886     1.211409     0.895423     1.200000     1.000000

--link1--
%chk=meso-TS_85_2_xp-0975.chk
%nproc=24
%mem=48GB
#p uwb97xd guess=mix def2tzvp 
# scrf=(iefpcm,solvent=Cyclohexane,read) nosym guess=only pop=none 

endo-2
xp-pcm for eta=3

0 1
  6  -3.106560  -0.437378   0.291938 
  6  -0.848443  -0.283188  -1.412362 
  1  -4.009580  -0.509623   0.886930 
  1   0.059937  -0.215575  -1.999027 
  6   1.250446   1.448137   0.910401 
  6   0.848443   0.283188   1.412362 
  1   0.670918   2.349204   1.073365 
  1  -0.059937   0.215575   1.999027 
  6   1.671088  -0.961349   1.237510 
  1   2.316912  -1.067273   2.119278 
  1   1.024124  -1.840049   1.224471 
  6   2.491494   1.537477   0.138807 
  1   2.894509   2.517243  -0.088123 
  6   3.106560   0.437378  -0.291938 
  1   4.009580   0.509623  -0.886930 
  6   2.527393  -0.925952  -0.029998 
  1   1.916886  -1.211409  -0.895423 
  1   3.321807  -1.671334   0.037592 
  6  -1.250446  -1.448137  -0.910401 
  1  -0.670918  -2.349204  -1.073365 
  6  -2.491494  -1.537477  -0.138807 
  1  -2.894509  -2.517243   0.088123 
  6  -1.671088   0.961349  -1.237510 
  1  -1.024124   1.840049  -1.224471 
  1  -2.316912   1.067273  -2.119278 
  6  -2.527393   0.925952   0.029998 
  1  -3.321807   1.671334  -0.037592 
  1  -1.916886   1.211409   0.895423 

qrep pcmdoc geomview  nodis nocav g03defaults tsare=0.075 
nsfe=28
NVESolv=36  SolvMW=84.1595   Rsolv=2.815 
eps=2.0165 RhoS=0.7781

   -3.106560    -0.437378     0.291938     1.700000     0.975000
   -0.848443    -0.283188    -1.412362     1.700000     0.975000
   -4.009580    -0.509623     0.886930     1.200000     0.975000
    0.059937    -0.215575    -1.999027     1.200000     0.975000
    1.250446     1.448137     0.910401     1.700000     0.975000
    0.848443     0.283188     1.412362     1.700000     0.975000
    0.670918     2.349204     1.073365     1.200000     0.975000
   -0.059937     0.215575     1.999027     1.200000     0.975000
    1.671088    -0.961349     1.237510     1.700000     0.975000
    2.316912    -1.067273     2.119278     1.200000     0.975000
    1.024124    -1.840049     1.224471     1.200000     0.975000
    2.491494     1.537477     0.138807     1.700000     0.975000
    2.894509     2.517243    -0.088123     1.200000     0.975000
    3.106560     0.437378    -0.291938     1.700000     0.975000
    4.009580     0.509623    -0.886930     1.200000     0.975000
    2.527393    -0.925952    -0.029998     1.700000     0.975000
    1.916886    -1.211409    -0.895423     1.200000     0.975000
    3.321807    -1.671334     0.037592     1.200000     0.975000
   -1.250446    -1.448137    -0.910401     1.700000     0.975000
   -0.670918    -2.349204    -1.073365     1.200000     0.975000
   -2.491494    -1.537477    -0.138807     1.700000     0.975000
   -2.894509    -2.517243     0.088123     1.200000     0.975000
   -1.671088     0.961349    -1.237510     1.700000     0.975000
   -1.024124     1.840049    -1.224471     1.200000     0.975000
   -2.316912     1.067273    -2.119278     1.200000     0.975000
   -2.527393     0.925952     0.029998     1.700000     0.975000
   -3.321807     1.671334    -0.037592     1.200000     0.975000
   -1.916886     1.211409     0.895423     1.200000     0.975000

--link1--
%chk=meso-TS_85_2_xp-095.chk
%nproc=24
%mem=48GB
#p uwb97xd guess=mix def2tzvp 
# scrf=(iefpcm,solvent=Cyclohexane,read) nosym guess=only pop=none 

endo-2
xp-pcm for eta=3

0 1
  6  -3.106560  -0.437378   0.291938 
  6  -0.848443  -0.283188  -1.412362 
  1  -4.009580  -0.509623   0.886930 
  1   0.059937  -0.215575  -1.999027 
  6   1.250446   1.448137   0.910401 
  6   0.848443   0.283188   1.412362 
  1   0.670918   2.349204   1.073365 
  1  -0.059937   0.215575   1.999027 
  6   1.671088  -0.961349   1.237510 
  1   2.316912  -1.067273   2.119278 
  1   1.024124  -1.840049   1.224471 
  6   2.491494   1.537477   0.138807 
  1   2.894509   2.517243  -0.088123 
  6   3.106560   0.437378  -0.291938 
  1   4.009580   0.509623  -0.886930 
  6   2.527393  -0.925952  -0.029998 
  1   1.916886  -1.211409  -0.895423 
  1   3.321807  -1.671334   0.037592 
  6  -1.250446  -1.448137  -0.910401 
  1  -0.670918  -2.349204  -1.073365 
  6  -2.491494  -1.537477  -0.138807 
  1  -2.894509  -2.517243   0.088123 
  6  -1.671088   0.961349  -1.237510 
  1  -1.024124   1.840049  -1.224471 
  1  -2.316912   1.067273  -2.119278 
  6  -2.527393   0.925952   0.029998 
  1  -3.321807   1.671334  -0.037592 
  1  -1.916886   1.211409   0.895423 

qrep pcmdoc geomview  nodis nocav g03defaults tsare=0.075 
nsfe=28
NVESolv=36  SolvMW=84.1595   Rsolv=2.815 
eps=2.0165 RhoS=0.7781

   -3.106560    -0.437378     0.291938     1.700000     0.950000
   -0.848443    -0.283188    -1.412362     1.700000     0.950000
   -4.009580    -0.509623     0.886930     1.200000     0.950000
    0.059937    -0.215575    -1.999027     1.200000     0.950000
    1.250446     1.448137     0.910401     1.700000     0.950000
    0.848443     0.283188     1.412362     1.700000     0.950000
    0.670918     2.349204     1.073365     1.200000     0.950000
   -0.059937     0.215575     1.999027     1.200000     0.950000
    1.671088    -0.961349     1.237510     1.700000     0.950000
    2.316912    -1.067273     2.119278     1.200000     0.950000
    1.024124    -1.840049     1.224471     1.200000     0.950000
    2.491494     1.537477     0.138807     1.700000     0.950000
    2.894509     2.517243    -0.088123     1.200000     0.950000
    3.106560     0.437378    -0.291938     1.700000     0.950000
    4.009580     0.509623    -0.886930     1.200000     0.950000
    2.527393    -0.925952    -0.029998     1.700000     0.950000
    1.916886    -1.211409    -0.895423     1.200000     0.950000
    3.321807    -1.671334     0.037592     1.200000     0.950000
   -1.250446    -1.448137    -0.910401     1.700000     0.950000
   -0.670918    -2.349204    -1.073365     1.200000     0.950000
   -2.491494    -1.537477    -0.138807     1.700000     0.950000
   -2.894509    -2.517243     0.088123     1.200000     0.950000
   -1.671088     0.961349    -1.237510     1.700000     0.950000
   -1.024124     1.840049    -1.224471     1.200000     0.950000
   -2.316912     1.067273    -2.119278     1.200000     0.950000
   -2.527393     0.925952     0.029998     1.700000     0.950000
   -3.321807     1.671334    -0.037592     1.200000     0.950000
   -1.916886     1.211409     0.895423     1.200000     0.950000

