%nproc=24
%mem=48GB
#p uwb97xd guess=mix def2tzvp 

endo-2

0 1
  6  -3.117905  -0.439074   0.282722 
  6  -0.818524  -0.273593  -1.364901 
  1  -4.033330  -0.517117   0.857717 
  1   0.103373  -0.201366  -1.929344 
  6   1.228903   1.441011   0.876454 
  6   0.818524   0.273593   1.364901 
  1   0.643410   2.339945   1.029443 
  1  -0.103373   0.201366   1.929344 
  6   1.645400  -0.970035   1.206150 
  1   2.259726  -1.083800   2.109018 
  1   0.997461  -1.847095   1.165558 
  6   2.485196   1.535682   0.130802 
  1   2.886502   2.517404  -0.090679 
  6   3.117905   0.439074  -0.282722 
  1   4.033330   0.517117  -0.857717 
  6   2.546291  -0.929423  -0.030764 
  1   1.973763  -1.230286  -0.916701 
  1   3.347800  -1.663372   0.070740 
  6  -1.228903  -1.441011  -0.876454 
  1  -0.643410  -2.339945  -1.029443 
  6  -2.485196  -1.535682  -0.130802 
  1  -2.886502  -2.517404   0.090679 
  6  -1.645400   0.970035  -1.206150 
  1  -0.997461   1.847095  -1.165558 
  1  -2.259726   1.083800  -2.109018 
  6  -2.546291   0.929423   0.030764 
  1  -3.347800   1.663372  -0.070740 
  1  -1.973763   1.230286   0.916701 

