%nproc=24
%mem=48GB
#p uwb97xd guess=mix def2tzvp 

endo-2

0 1
  6  -3.127733  -0.441472   0.259662 
  6  -0.712266  -0.246450  -1.208307 
  1  -4.075615  -0.536277   0.776736 
  1   0.243943  -0.161957  -1.709239 
  6   1.154893   1.423210   0.775798 
  6   0.712266   0.246450   1.208307 
  1   0.561616   2.319753   0.909444 
  1  -0.243943   0.161957   1.709239 
  6   1.548143  -0.995605   1.096596 
  1   2.065513  -1.127023   2.055461 
  1   0.906638  -1.869086   0.979497 
  6   2.451262   1.528658   0.106838 
  1   2.851863   2.514590  -0.096619 
  6   3.127733   0.441472  -0.259662 
  1   4.075615   0.536277  -0.776736 
  6   2.578684  -0.941439  -0.036814 
  1   2.130957  -1.289592  -0.975812 
  1   3.391928  -1.638383   0.174908 
  6  -1.154893  -1.423210  -0.775798 
  1  -0.561616  -2.319753  -0.909444 
  6  -2.451262  -1.528658  -0.106838 
  1  -2.851863  -2.514590   0.096619 
  6  -1.548143   0.995605  -1.096596 
  1  -0.906638   1.869086  -0.979497 
  1  -2.065513   1.127023  -2.055461 
  6  -2.578684   0.941439   0.036814 
  1  -3.391928   1.638383  -0.174908 
  1  -2.130957   1.289592   0.975812 

