%chk=meso-TS_13_2_xp-12.chk
%nproc=24
%mem=48GB
#p uwb97xd guess=mix def2tzvp 
# scrf=(iefpcm,solvent=Cyclohexane,read) nosym guess=only pop=none 

endo-2
xp-pcm for eta=3

0 1
  6  -3.119292  -0.437085   0.247292 
  6  -0.569370  -0.202476  -0.959340 
  1  -4.083426  -0.549760   0.729383 
  1   0.380387  -0.117904  -1.468298 
  6   1.091078   1.405545   0.692127 
  6   0.569370   0.202476   0.959340 
  1   0.517151   2.308513   0.856707 
  1  -0.380387   0.117904   1.468298 
  6   1.469648  -0.999582   0.993300 
  1   1.920562  -0.988028   1.993185 
  1   0.906483  -1.928611   0.921226 
  6   2.419739   1.515988   0.111913 
  1   2.828521   2.505149  -0.057522 
  6   3.119292   0.437085  -0.247292 
  1   4.083426   0.549760  -0.729383 
  6   2.591527  -0.957486  -0.045320 
  1   2.251568  -1.354671  -1.009800 
  1   3.400483  -1.619871   0.270232 
  6  -1.091078  -1.405545  -0.692127 
  1  -0.517151  -2.308513  -0.856707 
  6  -2.419738  -1.515988  -0.111913 
  1  -2.828521  -2.505149   0.057522 
  6  -1.469648   0.999582  -0.993300 
  1  -0.906482   1.928611  -0.921226 
  1  -1.920562   0.988028  -1.993185 
  6  -2.591527   0.957486   0.045320 
  1  -3.400483   1.619871  -0.270232 
  1  -2.251568   1.354671   1.009800 

qrep pcmdoc geomview  nodis nocav g03defaults tsare=0.075 
nsfe=28
NVESolv=36  SolvMW=84.1595   Rsolv=2.815 
eps=2.0165 RhoS=0.7781

   -3.119292    -0.437085     0.247292     1.700000     1.200000
   -0.569370    -0.202476    -0.959340     1.700000     1.200000
   -4.083426    -0.549760     0.729383     1.200000     1.200000
    0.380387    -0.117904    -1.468298     1.200000     1.200000
    1.091078     1.405545     0.692127     1.700000     1.200000
    0.569370     0.202476     0.959340     1.700000     1.200000
    0.517151     2.308513     0.856707     1.200000     1.200000
   -0.380387     0.117904     1.468298     1.200000     1.200000
    1.469648    -0.999582     0.993300     1.700000     1.200000
    1.920562    -0.988028     1.993185     1.200000     1.200000
    0.906483    -1.928611     0.921226     1.200000     1.200000
    2.419739     1.515988     0.111913     1.700000     1.200000
    2.828521     2.505149    -0.057522     1.200000     1.200000
    3.119292     0.437085    -0.247292     1.700000     1.200000
    4.083426     0.549760    -0.729383     1.200000     1.200000
    2.591527    -0.957486    -0.045320     1.700000     1.200000
    2.251568    -1.354671    -1.009800     1.200000     1.200000
    3.400483    -1.619871     0.270232     1.200000     1.200000
   -1.091078    -1.405545    -0.692127     1.700000     1.200000
   -0.517151    -2.308513    -0.856707     1.200000     1.200000
   -2.419738    -1.515988    -0.111913     1.700000     1.200000
   -2.828521    -2.505149     0.057522     1.200000     1.200000
   -1.469648     0.999582    -0.993300     1.700000     1.200000
   -0.906482     1.928611    -0.921226     1.200000     1.200000
   -1.920562     0.988028    -1.993185     1.200000     1.200000
   -2.591527     0.957486     0.045320     1.700000     1.200000
   -3.400483     1.619871    -0.270232     1.200000     1.200000
   -2.251568     1.354671     1.009800     1.200000     1.200000

--link1--
%chk=meso-TS_13_2_xp-115.chk
%nproc=24
%mem=48GB
#p uwb97xd guess=mix def2tzvp 
# scrf=(iefpcm,solvent=Cyclohexane,read) nosym guess=only pop=none 

endo-2
xp-pcm for eta=3

0 1
  6  -3.119292  -0.437085   0.247292 
  6  -0.569370  -0.202476  -0.959340 
  1  -4.083426  -0.549760   0.729383 
  1   0.380387  -0.117904  -1.468298 
  6   1.091078   1.405545   0.692127 
  6   0.569370   0.202476   0.959340 
  1   0.517151   2.308513   0.856707 
  1  -0.380387   0.117904   1.468298 
  6   1.469648  -0.999582   0.993300 
  1   1.920562  -0.988028   1.993185 
  1   0.906483  -1.928611   0.921226 
  6   2.419739   1.515988   0.111913 
  1   2.828521   2.505149  -0.057522 
  6   3.119292   0.437085  -0.247292 
  1   4.083426   0.549760  -0.729383 
  6   2.591527  -0.957486  -0.045320 
  1   2.251568  -1.354671  -1.009800 
  1   3.400483  -1.619871   0.270232 
  6  -1.091078  -1.405545  -0.692127 
  1  -0.517151  -2.308513  -0.856707 
  6  -2.419738  -1.515988  -0.111913 
  1  -2.828521  -2.505149   0.057522 
  6  -1.469648   0.999582  -0.993300 
  1  -0.906482   1.928611  -0.921226 
  1  -1.920562   0.988028  -1.993185 
  6  -2.591527   0.957486   0.045320 
  1  -3.400483   1.619871  -0.270232 
  1  -2.251568   1.354671   1.009800 

qrep pcmdoc geomview  nodis nocav g03defaults tsare=0.075 
nsfe=28
NVESolv=36  SolvMW=84.1595   Rsolv=2.815 
eps=2.0165 RhoS=0.7781

   -3.119292    -0.437085     0.247292     1.700000     1.150000
   -0.569370    -0.202476    -0.959340     1.700000     1.150000
   -4.083426    -0.549760     0.729383     1.200000     1.150000
    0.380387    -0.117904    -1.468298     1.200000     1.150000
    1.091078     1.405545     0.692127     1.700000     1.150000
    0.569370     0.202476     0.959340     1.700000     1.150000
    0.517151     2.308513     0.856707     1.200000     1.150000
   -0.380387     0.117904     1.468298     1.200000     1.150000
    1.469648    -0.999582     0.993300     1.700000     1.150000
    1.920562    -0.988028     1.993185     1.200000     1.150000
    0.906483    -1.928611     0.921226     1.200000     1.150000
    2.419739     1.515988     0.111913     1.700000     1.150000
    2.828521     2.505149    -0.057522     1.200000     1.150000
    3.119292     0.437085    -0.247292     1.700000     1.150000
    4.083426     0.549760    -0.729383     1.200000     1.150000
    2.591527    -0.957486    -0.045320     1.700000     1.150000
    2.251568    -1.354671    -1.009800     1.200000     1.150000
    3.400483    -1.619871     0.270232     1.200000     1.150000
   -1.091078    -1.405545    -0.692127     1.700000     1.150000
   -0.517151    -2.308513    -0.856707     1.200000     1.150000
   -2.419738    -1.515988    -0.111913     1.700000     1.150000
   -2.828521    -2.505149     0.057522     1.200000     1.150000
   -1.469648     0.999582    -0.993300     1.700000     1.150000
   -0.906482     1.928611    -0.921226     1.200000     1.150000
   -1.920562     0.988028    -1.993185     1.200000     1.150000
   -2.591527     0.957486     0.045320     1.700000     1.150000
   -3.400483     1.619871    -0.270232     1.200000     1.150000
   -2.251568     1.354671     1.009800     1.200000     1.150000

--link1--
%chk=meso-TS_13_2_xp-110.chk
%nproc=24
%mem=48GB
#p uwb97xd guess=mix def2tzvp 
# scrf=(iefpcm,solvent=Cyclohexane,read) nosym guess=only pop=none 

endo-2
xp-pcm for eta=3

0 1
  6  -3.119292  -0.437085   0.247292 
  6  -0.569370  -0.202476  -0.959340 
  1  -4.083426  -0.549760   0.729383 
  1   0.380387  -0.117904  -1.468298 
  6   1.091078   1.405545   0.692127 
  6   0.569370   0.202476   0.959340 
  1   0.517151   2.308513   0.856707 
  1  -0.380387   0.117904   1.468298 
  6   1.469648  -0.999582   0.993300 
  1   1.920562  -0.988028   1.993185 
  1   0.906483  -1.928611   0.921226 
  6   2.419739   1.515988   0.111913 
  1   2.828521   2.505149  -0.057522 
  6   3.119292   0.437085  -0.247292 
  1   4.083426   0.549760  -0.729383 
  6   2.591527  -0.957486  -0.045320 
  1   2.251568  -1.354671  -1.009800 
  1   3.400483  -1.619871   0.270232 
  6  -1.091078  -1.405545  -0.692127 
  1  -0.517151  -2.308513  -0.856707 
  6  -2.419738  -1.515988  -0.111913 
  1  -2.828521  -2.505149   0.057522 
  6  -1.469648   0.999582  -0.993300 
  1  -0.906482   1.928611  -0.921226 
  1  -1.920562   0.988028  -1.993185 
  6  -2.591527   0.957486   0.045320 
  1  -3.400483   1.619871  -0.270232 
  1  -2.251568   1.354671   1.009800 

qrep pcmdoc geomview  nodis nocav g03defaults tsare=0.075 
nsfe=28
NVESolv=36  SolvMW=84.1595   Rsolv=2.815 
eps=2.0165 RhoS=0.7781

   -3.119292    -0.437085     0.247292     1.700000     1.100000
   -0.569370    -0.202476    -0.959340     1.700000     1.100000
   -4.083426    -0.549760     0.729383     1.200000     1.100000
    0.380387    -0.117904    -1.468298     1.200000     1.100000
    1.091078     1.405545     0.692127     1.700000     1.100000
    0.569370     0.202476     0.959340     1.700000     1.100000
    0.517151     2.308513     0.856707     1.200000     1.100000
   -0.380387     0.117904     1.468298     1.200000     1.100000
    1.469648    -0.999582     0.993300     1.700000     1.100000
    1.920562    -0.988028     1.993185     1.200000     1.100000
    0.906483    -1.928611     0.921226     1.200000     1.100000
    2.419739     1.515988     0.111913     1.700000     1.100000
    2.828521     2.505149    -0.057522     1.200000     1.100000
    3.119292     0.437085    -0.247292     1.700000     1.100000
    4.083426     0.549760    -0.729383     1.200000     1.100000
    2.591527    -0.957486    -0.045320     1.700000     1.100000
    2.251568    -1.354671    -1.009800     1.200000     1.100000
    3.400483    -1.619871     0.270232     1.200000     1.100000
   -1.091078    -1.405545    -0.692127     1.700000     1.100000
   -0.517151    -2.308513    -0.856707     1.200000     1.100000
   -2.419738    -1.515988    -0.111913     1.700000     1.100000
   -2.828521    -2.505149     0.057522     1.200000     1.100000
   -1.469648     0.999582    -0.993300     1.700000     1.100000
   -0.906482     1.928611    -0.921226     1.200000     1.100000
   -1.920562     0.988028    -1.993185     1.200000     1.100000
   -2.591527     0.957486     0.045320     1.700000     1.100000
   -3.400483     1.619871    -0.270232     1.200000     1.100000
   -2.251568     1.354671     1.009800     1.200000     1.100000

--link1--
%chk=meso-TS_13_2_xp-105.chk
%nproc=24
%mem=48GB
#p uwb97xd guess=mix def2tzvp 
# scrf=(iefpcm,solvent=Cyclohexane,read) nosym guess=only pop=none 

endo-2
xp-pcm for eta=3

0 1
  6  -3.119292  -0.437085   0.247292 
  6  -0.569370  -0.202476  -0.959340 
  1  -4.083426  -0.549760   0.729383 
  1   0.380387  -0.117904  -1.468298 
  6   1.091078   1.405545   0.692127 
  6   0.569370   0.202476   0.959340 
  1   0.517151   2.308513   0.856707 
  1  -0.380387   0.117904   1.468298 
  6   1.469648  -0.999582   0.993300 
  1   1.920562  -0.988028   1.993185 
  1   0.906483  -1.928611   0.921226 
  6   2.419739   1.515988   0.111913 
  1   2.828521   2.505149  -0.057522 
  6   3.119292   0.437085  -0.247292 
  1   4.083426   0.549760  -0.729383 
  6   2.591527  -0.957486  -0.045320 
  1   2.251568  -1.354671  -1.009800 
  1   3.400483  -1.619871   0.270232 
  6  -1.091078  -1.405545  -0.692127 
  1  -0.517151  -2.308513  -0.856707 
  6  -2.419738  -1.515988  -0.111913 
  1  -2.828521  -2.505149   0.057522 
  6  -1.469648   0.999582  -0.993300 
  1  -0.906482   1.928611  -0.921226 
  1  -1.920562   0.988028  -1.993185 
  6  -2.591527   0.957486   0.045320 
  1  -3.400483   1.619871  -0.270232 
  1  -2.251568   1.354671   1.009800 

qrep pcmdoc geomview  nodis nocav g03defaults tsare=0.075 
nsfe=28
NVESolv=36  SolvMW=84.1595   Rsolv=2.815 
eps=2.0165 RhoS=0.7781

   -3.119292    -0.437085     0.247292     1.700000     1.050000
   -0.569370    -0.202476    -0.959340     1.700000     1.050000
   -4.083426    -0.549760     0.729383     1.200000     1.050000
    0.380387    -0.117904    -1.468298     1.200000     1.050000
    1.091078     1.405545     0.692127     1.700000     1.050000
    0.569370     0.202476     0.959340     1.700000     1.050000
    0.517151     2.308513     0.856707     1.200000     1.050000
   -0.380387     0.117904     1.468298     1.200000     1.050000
    1.469648    -0.999582     0.993300     1.700000     1.050000
    1.920562    -0.988028     1.993185     1.200000     1.050000
    0.906483    -1.928611     0.921226     1.200000     1.050000
    2.419739     1.515988     0.111913     1.700000     1.050000
    2.828521     2.505149    -0.057522     1.200000     1.050000
    3.119292     0.437085    -0.247292     1.700000     1.050000
    4.083426     0.549760    -0.729383     1.200000     1.050000
    2.591527    -0.957486    -0.045320     1.700000     1.050000
    2.251568    -1.354671    -1.009800     1.200000     1.050000
    3.400483    -1.619871     0.270232     1.200000     1.050000
   -1.091078    -1.405545    -0.692127     1.700000     1.050000
   -0.517151    -2.308513    -0.856707     1.200000     1.050000
   -2.419738    -1.515988    -0.111913     1.700000     1.050000
   -2.828521    -2.505149     0.057522     1.200000     1.050000
   -1.469648     0.999582    -0.993300     1.700000     1.050000
   -0.906482     1.928611    -0.921226     1.200000     1.050000
   -1.920562     0.988028    -1.993185     1.200000     1.050000
   -2.591527     0.957486     0.045320     1.700000     1.050000
   -3.400483     1.619871    -0.270232     1.200000     1.050000
   -2.251568     1.354671     1.009800     1.200000     1.050000

--link1--
%chk=meso-TS_13_2_xp-100.chk
%nproc=24
%mem=48GB
#p uwb97xd guess=mix def2tzvp 
# scrf=(iefpcm,solvent=Cyclohexane,read) nosym guess=only pop=none 

endo-2
xp-pcm for eta=3

0 1
  6  -3.119292  -0.437085   0.247292 
  6  -0.569370  -0.202476  -0.959340 
  1  -4.083426  -0.549760   0.729383 
  1   0.380387  -0.117904  -1.468298 
  6   1.091078   1.405545   0.692127 
  6   0.569370   0.202476   0.959340 
  1   0.517151   2.308513   0.856707 
  1  -0.380387   0.117904   1.468298 
  6   1.469648  -0.999582   0.993300 
  1   1.920562  -0.988028   1.993185 
  1   0.906483  -1.928611   0.921226 
  6   2.419739   1.515988   0.111913 
  1   2.828521   2.505149  -0.057522 
  6   3.119292   0.437085  -0.247292 
  1   4.083426   0.549760  -0.729383 
  6   2.591527  -0.957486  -0.045320 
  1   2.251568  -1.354671  -1.009800 
  1   3.400483  -1.619871   0.270232 
  6  -1.091078  -1.405545  -0.692127 
  1  -0.517151  -2.308513  -0.856707 
  6  -2.419738  -1.515988  -0.111913 
  1  -2.828521  -2.505149   0.057522 
  6  -1.469648   0.999582  -0.993300 
  1  -0.906482   1.928611  -0.921226 
  1  -1.920562   0.988028  -1.993185 
  6  -2.591527   0.957486   0.045320 
  1  -3.400483   1.619871  -0.270232 
  1  -2.251568   1.354671   1.009800 

qrep pcmdoc geomview  nodis nocav g03defaults tsare=0.075 
nsfe=28
NVESolv=36  SolvMW=84.1595   Rsolv=2.815 
eps=2.0165 RhoS=0.7781

   -3.119292    -0.437085     0.247292     1.700000     1.000000
   -0.569370    -0.202476    -0.959340     1.700000     1.000000
   -4.083426    -0.549760     0.729383     1.200000     1.000000
    0.380387    -0.117904    -1.468298     1.200000     1.000000
    1.091078     1.405545     0.692127     1.700000     1.000000
    0.569370     0.202476     0.959340     1.700000     1.000000
    0.517151     2.308513     0.856707     1.200000     1.000000
   -0.380387     0.117904     1.468298     1.200000     1.000000
    1.469648    -0.999582     0.993300     1.700000     1.000000
    1.920562    -0.988028     1.993185     1.200000     1.000000
    0.906483    -1.928611     0.921226     1.200000     1.000000
    2.419739     1.515988     0.111913     1.700000     1.000000
    2.828521     2.505149    -0.057522     1.200000     1.000000
    3.119292     0.437085    -0.247292     1.700000     1.000000
    4.083426     0.549760    -0.729383     1.200000     1.000000
    2.591527    -0.957486    -0.045320     1.700000     1.000000
    2.251568    -1.354671    -1.009800     1.200000     1.000000
    3.400483    -1.619871     0.270232     1.200000     1.000000
   -1.091078    -1.405545    -0.692127     1.700000     1.000000
   -0.517151    -2.308513    -0.856707     1.200000     1.000000
   -2.419738    -1.515988    -0.111913     1.700000     1.000000
   -2.828521    -2.505149     0.057522     1.200000     1.000000
   -1.469648     0.999582    -0.993300     1.700000     1.000000
   -0.906482     1.928611    -0.921226     1.200000     1.000000
   -1.920562     0.988028    -1.993185     1.200000     1.000000
   -2.591527     0.957486     0.045320     1.700000     1.000000
   -3.400483     1.619871    -0.270232     1.200000     1.000000
   -2.251568     1.354671     1.009800     1.200000     1.000000

--link1--
%chk=meso-TS_13_2_xp-0975.chk
%nproc=24
%mem=48GB
#p uwb97xd guess=mix def2tzvp 
# scrf=(iefpcm,solvent=Cyclohexane,read) nosym guess=only pop=none 

endo-2
xp-pcm for eta=3

0 1
  6  -3.119292  -0.437085   0.247292 
  6  -0.569370  -0.202476  -0.959340 
  1  -4.083426  -0.549760   0.729383 
  1   0.380387  -0.117904  -1.468298 
  6   1.091078   1.405545   0.692127 
  6   0.569370   0.202476   0.959340 
  1   0.517151   2.308513   0.856707 
  1  -0.380387   0.117904   1.468298 
  6   1.469648  -0.999582   0.993300 
  1   1.920562  -0.988028   1.993185 
  1   0.906483  -1.928611   0.921226 
  6   2.419739   1.515988   0.111913 
  1   2.828521   2.505149  -0.057522 
  6   3.119292   0.437085  -0.247292 
  1   4.083426   0.549760  -0.729383 
  6   2.591527  -0.957486  -0.045320 
  1   2.251568  -1.354671  -1.009800 
  1   3.400483  -1.619871   0.270232 
  6  -1.091078  -1.405545  -0.692127 
  1  -0.517151  -2.308513  -0.856707 
  6  -2.419738  -1.515988  -0.111913 
  1  -2.828521  -2.505149   0.057522 
  6  -1.469648   0.999582  -0.993300 
  1  -0.906482   1.928611  -0.921226 
  1  -1.920562   0.988028  -1.993185 
  6  -2.591527   0.957486   0.045320 
  1  -3.400483   1.619871  -0.270232 
  1  -2.251568   1.354671   1.009800 

qrep pcmdoc geomview  nodis nocav g03defaults tsare=0.075 
nsfe=28
NVESolv=36  SolvMW=84.1595   Rsolv=2.815 
eps=2.0165 RhoS=0.7781

   -3.119292    -0.437085     0.247292     1.700000     0.975000
   -0.569370    -0.202476    -0.959340     1.700000     0.975000
   -4.083426    -0.549760     0.729383     1.200000     0.975000
    0.380387    -0.117904    -1.468298     1.200000     0.975000
    1.091078     1.405545     0.692127     1.700000     0.975000
    0.569370     0.202476     0.959340     1.700000     0.975000
    0.517151     2.308513     0.856707     1.200000     0.975000
   -0.380387     0.117904     1.468298     1.200000     0.975000
    1.469648    -0.999582     0.993300     1.700000     0.975000
    1.920562    -0.988028     1.993185     1.200000     0.975000
    0.906483    -1.928611     0.921226     1.200000     0.975000
    2.419739     1.515988     0.111913     1.700000     0.975000
    2.828521     2.505149    -0.057522     1.200000     0.975000
    3.119292     0.437085    -0.247292     1.700000     0.975000
    4.083426     0.549760    -0.729383     1.200000     0.975000
    2.591527    -0.957486    -0.045320     1.700000     0.975000
    2.251568    -1.354671    -1.009800     1.200000     0.975000
    3.400483    -1.619871     0.270232     1.200000     0.975000
   -1.091078    -1.405545    -0.692127     1.700000     0.975000
   -0.517151    -2.308513    -0.856707     1.200000     0.975000
   -2.419738    -1.515988    -0.111913     1.700000     0.975000
   -2.828521    -2.505149     0.057522     1.200000     0.975000
   -1.469648     0.999582    -0.993300     1.700000     0.975000
   -0.906482     1.928611    -0.921226     1.200000     0.975000
   -1.920562     0.988028    -1.993185     1.200000     0.975000
   -2.591527     0.957486     0.045320     1.700000     0.975000
   -3.400483     1.619871    -0.270232     1.200000     0.975000
   -2.251568     1.354671     1.009800     1.200000     0.975000

--link1--
%chk=meso-TS_13_2_xp-095.chk
%nproc=24
%mem=48GB
#p uwb97xd guess=mix def2tzvp 
# scrf=(iefpcm,solvent=Cyclohexane,read) nosym guess=only pop=none 

endo-2
xp-pcm for eta=3

0 1
  6  -3.119292  -0.437085   0.247292 
  6  -0.569370  -0.202476  -0.959340 
  1  -4.083426  -0.549760   0.729383 
  1   0.380387  -0.117904  -1.468298 
  6   1.091078   1.405545   0.692127 
  6   0.569370   0.202476   0.959340 
  1   0.517151   2.308513   0.856707 
  1  -0.380387   0.117904   1.468298 
  6   1.469648  -0.999582   0.993300 
  1   1.920562  -0.988028   1.993185 
  1   0.906483  -1.928611   0.921226 
  6   2.419739   1.515988   0.111913 
  1   2.828521   2.505149  -0.057522 
  6   3.119292   0.437085  -0.247292 
  1   4.083426   0.549760  -0.729383 
  6   2.591527  -0.957486  -0.045320 
  1   2.251568  -1.354671  -1.009800 
  1   3.400483  -1.619871   0.270232 
  6  -1.091078  -1.405545  -0.692127 
  1  -0.517151  -2.308513  -0.856707 
  6  -2.419738  -1.515988  -0.111913 
  1  -2.828521  -2.505149   0.057522 
  6  -1.469648   0.999582  -0.993300 
  1  -0.906482   1.928611  -0.921226 
  1  -1.920562   0.988028  -1.993185 
  6  -2.591527   0.957486   0.045320 
  1  -3.400483   1.619871  -0.270232 
  1  -2.251568   1.354671   1.009800 

qrep pcmdoc geomview  nodis nocav g03defaults tsare=0.075 
nsfe=28
NVESolv=36  SolvMW=84.1595   Rsolv=2.815 
eps=2.0165 RhoS=0.7781

   -3.119292    -0.437085     0.247292     1.700000     0.950000
   -0.569370    -0.202476    -0.959340     1.700000     0.950000
   -4.083426    -0.549760     0.729383     1.200000     0.950000
    0.380387    -0.117904    -1.468298     1.200000     0.950000
    1.091078     1.405545     0.692127     1.700000     0.950000
    0.569370     0.202476     0.959340     1.700000     0.950000
    0.517151     2.308513     0.856707     1.200000     0.950000
   -0.380387     0.117904     1.468298     1.200000     0.950000
    1.469648    -0.999582     0.993300     1.700000     0.950000
    1.920562    -0.988028     1.993185     1.200000     0.950000
    0.906483    -1.928611     0.921226     1.200000     0.950000
    2.419739     1.515988     0.111913     1.700000     0.950000
    2.828521     2.505149    -0.057522     1.200000     0.950000
    3.119292     0.437085    -0.247292     1.700000     0.950000
    4.083426     0.549760    -0.729383     1.200000     0.950000
    2.591527    -0.957486    -0.045320     1.700000     0.950000
    2.251568    -1.354671    -1.009800     1.200000     0.950000
    3.400483    -1.619871     0.270232     1.200000     0.950000
   -1.091078    -1.405545    -0.692127     1.700000     0.950000
   -0.517151    -2.308513    -0.856707     1.200000     0.950000
   -2.419738    -1.515988    -0.111913     1.700000     0.950000
   -2.828521    -2.505149     0.057522     1.200000     0.950000
   -1.469648     0.999582    -0.993300     1.700000     0.950000
   -0.906482     1.928611    -0.921226     1.200000     0.950000
   -1.920562     0.988028    -1.993185     1.200000     0.950000
   -2.591527     0.957486     0.045320     1.700000     0.950000
   -3.400483     1.619871    -0.270232     1.200000     0.950000
   -2.251568     1.354671     1.009800     1.200000     0.950000

