%nproc=24
%mem=48GB
#p uwb97xd guess=mix def2tzvp 

endo-2

0 1
  6  -3.098513  -0.436500   0.297249 
  6  -0.861071  -0.287320  -1.434453 
  1  -3.995051  -0.506406   0.902238 
  1   0.039880  -0.222022  -2.032799 
  6   1.258789   1.451186   0.926330 
  6   0.861071   0.287320   1.434453 
  1   0.682856   2.353417   1.095493 
  1  -0.039880   0.222022   2.032799 
  6   1.680124  -0.958340   1.250373 
  1   2.338755  -1.063318   2.122790 
  1   1.032621  -1.836753   1.247814 
  6   2.491417   1.538056   0.141048 
  1   2.894424   2.516962  -0.089563 
  6   3.098513   0.436500  -0.297249 
  1   3.995051   0.506406  -0.902238 
  6   2.517509  -0.924863  -0.029561 
  1   1.891928  -1.205223  -0.885783 
  1   3.309327  -1.674070   0.024595 
  6  -1.258789  -1.451186  -0.926330 
  1  -0.682856  -2.353417  -1.095493 
  6  -2.491417  -1.538056  -0.141048 
  1  -2.894424  -2.516962   0.089563 
  6  -1.680124   0.958340  -1.250373 
  1  -1.032621   1.836753  -1.247814 
  1  -2.338755   1.063318  -2.122790 
  6  -2.517509   0.924863   0.029561 
  1  -3.309327   1.674070  -0.024595 
  1  -1.891928   1.205223   0.885783 

