%nproc=24
%mem=48GB
#p uwb97xd guess=mix def2tzvp 

endo-2

0 1
  6  -3.123851  -0.439092   0.250213 
  6  -0.638871  -0.228030  -1.091208 
  1  -4.085250  -0.545648   0.739279 
  1   0.332398  -0.134530  -1.557972 
  6   1.111771   1.414807   0.720971 
  6   0.638871   0.228030   1.091208 
  1   0.521222   2.313208   0.849854 
  1  -0.332398   0.134530   1.557972 
  6   1.498231  -1.001132   1.032059 
  1   1.977087  -1.086669   2.015683 
  1   0.887049  -1.894953   0.918152 
  6   2.431928   1.520945   0.106549 
  1   2.838816   2.508222  -0.077244 
  6   3.123851   0.439092  -0.250213 
  1   4.085250   0.545648  -0.739279 
  6   2.588038  -0.951447  -0.044186 
  1   2.212289  -1.330839  -1.002494 
  1   3.400495  -1.625372   0.235297 
  6  -1.111771  -1.414807  -0.720971 
  1  -0.521222  -2.313208  -0.849854 
  6  -2.431928  -1.520945  -0.106549 
  1  -2.838816  -2.508222   0.077244 
  6  -1.498231   1.001132  -1.032059 
  1  -0.887049   1.894953  -0.918152 
  1  -1.977087   1.086669  -2.015683 
  6  -2.588038   0.951447   0.044186 
  1  -3.400495   1.625372  -0.235298 
  1  -2.212289   1.330839   1.002494 

