%nproc=24
%mem=48GB
#p uwb97xd guess=mix def2tzvp 

endo-2

0 1
  6  -3.109880  -0.437814   0.289589 
  6  -0.842090  -0.281086  -1.401689 
  1  -4.015911  -0.511321   0.879834 
  1   0.069547  -0.212421  -1.983123 
  6   1.245936   1.446550   0.902578 
  6   0.842090   0.281086   1.401689 
  1   0.664787   2.347053   1.062862 
  1  -0.069547   0.212421   1.983123 
  6   1.665941  -0.963145   1.230781 
  1   2.304863  -1.070547   2.117348 
  1   1.018790  -1.841591   1.211725 
  6   2.490703   1.537141   0.137172 
  1   2.893402   2.517360  -0.088368 
  6   3.109880   0.437814  -0.289589 
  1   4.015911   0.511321  -0.879834 
  6   2.532158  -0.926627  -0.030106 
  1   1.929801  -1.215221  -0.900203 
  1   3.328113  -1.669683   0.044769 
  6  -1.245936  -1.446550  -0.902578 
  1  -0.664787  -2.347053  -1.062862 
  6  -2.490703  -1.537141  -0.137172 
  1  -2.893402  -2.517360   0.088368 
  6  -1.665941   0.963145  -1.230781 
  1  -1.018790   1.841591  -1.211725 
  1  -2.304863   1.070547  -2.117348 
  6  -2.532158   0.926627   0.030106 
  1  -3.328113   1.669683  -0.044769 
  1  -1.929801   1.215221   0.900203 

