%nproc=24
%mem=48GB
#p uwb97xd guess=mix def2tzvp 
# scrf=(iefpcm,solvent=Cyclohexane,read) nosym 6d 10f 

endo-2
xp-pcm for eta=3

0 1
  6  -3.127383  -0.441200   0.256946 
  6  -0.696508  -0.242696  -1.184341 
  1  -4.079078  -0.538518   0.766502 
  1   0.264362  -0.155913  -1.675481 
  6   1.144636   1.421194   0.762509 
  6   0.696508   0.242696   1.184341 
  1   0.551234   2.317867   0.893879 
  1  -0.264362   0.155913   1.675481 
  6   1.535929  -0.997742   1.081645 
  1   2.043151  -1.124317   2.046516 
  1   0.898815  -1.873600   0.960552 
  6   2.446597   1.527191   0.105512 
  1   2.848349   2.513477  -0.093966 
  6   3.127383   0.441200  -0.256946 
  1   4.079078   0.538518  -0.766502 
  6   2.581145  -0.943485  -0.038369 
  1   2.150037  -1.298130  -0.982721 
  1   3.394647  -1.635414   0.188466 
  6  -1.144636  -1.421194  -0.762509 
  1  -0.551234  -2.317867  -0.893879 
  6  -2.446597  -1.527191  -0.105512 
  1  -2.848349  -2.513477   0.093966 
  6  -1.535929   0.997742  -1.081645 
  1  -0.898815   1.873600  -0.960552 
  1  -2.043151   1.124317  -2.046516 
  6  -2.581145   0.943485   0.038369 
  1  -3.394647   1.635414  -0.188467 
  1  -2.150037   1.298130   0.982721 

norep pcmdoc geomview  nodis nocav g03defaults tsare=0.075 
nsfe=28
NVESolv=36  SolvMW=84.1595   Rsolv=2.815 
eps=2.0165 RhoS=0.7781

    1     1.700000     1.200000
    2     1.700000     1.200000
    3     1.200000     1.200000
    4     1.200000     1.200000
    5     1.700000     1.200000
    6     1.700000     1.200000
    7     1.200000     1.200000
    8     1.200000     1.200000
    9     1.700000     1.200000
   10     1.200000     1.200000
   11     1.200000     1.200000
   12     1.700000     1.200000
   13     1.200000     1.200000
   14     1.700000     1.200000
   15     1.200000     1.200000
   16     1.700000     1.200000
   17     1.200000     1.200000
   18     1.200000     1.200000
   19     1.700000     1.200000
   20     1.200000     1.200000
   21     1.700000     1.200000
   22     1.200000     1.200000
   23     1.700000     1.200000
   24     1.200000     1.200000
   25     1.200000     1.200000
   26     1.700000     1.200000
   27     1.200000     1.200000
   28     1.200000     1.200000

