%nproc=24
%mem=48GB
#p uwb97xd guess=mix def2tzvp 

endo-2

0 1
  6  -3.102791  -0.436942   0.294467 
  6  -0.854803  -0.285288  -1.423342 
  1  -4.002674  -0.507991   0.894334 
  1   0.050001  -0.218800  -2.015673 
  6   1.254733   1.449690   0.918323 
  6   0.854803   0.285288   1.423342 
  1   0.676960   2.351339   1.084267 
  1  -0.050001   0.218800   2.015673 
  6   1.675794  -0.959752   1.244012 
  1   2.328188  -1.064919   2.121055 
  1   1.028720  -1.838437   1.236481 
  6   2.491738   1.537782   0.140104 
  1   2.894868   2.517109  -0.088499 
  6   3.102791   0.436942  -0.294467 
  1   4.002674   0.507991  -0.894334 
  6   2.522513  -0.925362  -0.029828 
  1   1.904297  -1.208063  -0.890647 
  1   3.315540  -1.672797   0.030878 
  6  -1.254733  -1.449690  -0.918323 
  1  -0.676960  -2.351339  -1.084267 
  6  -2.491738  -1.537782  -0.140104 
  1  -2.894868  -2.517109   0.088499 
  6  -1.675794   0.959752  -1.244012 
  1  -1.028720   1.838437  -1.236481 
  1  -2.328188   1.064919  -2.121055 
  6  -2.522513   0.925362   0.029828 
  1  -3.315540   1.672797  -0.030878 
  1  -1.904297   1.208063   0.890647 

