%chk=meso-TS_49_2_xp-12.chk
%nproc=24
%mem=48GB
#p uwb97xd guess=mix def2tzvp 
# scrf=(iefpcm,solvent=Cyclohexane,read) nosym guess=only pop=none 

endo-2
xp-pcm for eta=3

0 1
  6  -3.127753  -0.441522   0.261122 
  6  -0.719921  -0.248221  -1.219838 
  1  -4.073595  -0.535125   0.782132 
  1   0.234126  -0.164733  -1.725204 
  6   1.160074   1.424218   0.782600 
  6   0.719921   0.248221   1.219838 
  1   0.566933   2.320735   0.917353 
  1  -0.234126   0.164733   1.725204 
  6   1.554591  -0.994289   1.104230 
  1   2.077836  -1.126314   2.059864 
  1   0.911886  -1.867512   0.990956 
  6   2.453641   1.529303   0.107811 
  1   2.853781   2.515042  -0.097470 
  6   3.127753   0.441522  -0.261122 
  1   4.073595   0.535125  -0.782132 
  6   2.577324  -0.940508  -0.036133 
  1   2.121249  -1.285571  -0.972240 
  1   3.390356  -1.639895   0.168128 
  6  -1.160074  -1.424218  -0.782600 
  1  -0.566933  -2.320735  -0.917353 
  6  -2.453641  -1.529303  -0.107811 
  1  -2.853781  -2.515042   0.097470 
  6  -1.554591   0.994289  -1.104230 
  1  -0.911886   1.867512  -0.990956 
  1  -2.077836   1.126314  -2.059864 
  6  -2.577324   0.940508   0.036133 
  1  -3.390356   1.639895  -0.168129 
  1  -2.121249   1.285571   0.972240 

qrep pcmdoc geomview  nodis nocav g03defaults tsare=0.075 
nsfe=28
NVESolv=36  SolvMW=84.1595   Rsolv=2.815 
eps=2.0165 RhoS=0.7781

   -3.127753    -0.441522     0.261122     1.700000     1.200000
   -0.719921    -0.248221    -1.219838     1.700000     1.200000
   -4.073595    -0.535125     0.782132     1.200000     1.200000
    0.234126    -0.164733    -1.725204     1.200000     1.200000
    1.160074     1.424218     0.782600     1.700000     1.200000
    0.719921     0.248221     1.219838     1.700000     1.200000
    0.566933     2.320735     0.917353     1.200000     1.200000
   -0.234126     0.164733     1.725204     1.200000     1.200000
    1.554591    -0.994289     1.104230     1.700000     1.200000
    2.077836    -1.126314     2.059864     1.200000     1.200000
    0.911886    -1.867512     0.990956     1.200000     1.200000
    2.453641     1.529303     0.107811     1.700000     1.200000
    2.853781     2.515042    -0.097470     1.200000     1.200000
    3.127753     0.441522    -0.261122     1.700000     1.200000
    4.073595     0.535125    -0.782132     1.200000     1.200000
    2.577324    -0.940508    -0.036133     1.700000     1.200000
    2.121249    -1.285571    -0.972240     1.200000     1.200000
    3.390356    -1.639895     0.168128     1.200000     1.200000
   -1.160074    -1.424218    -0.782600     1.700000     1.200000
   -0.566933    -2.320735    -0.917353     1.200000     1.200000
   -2.453641    -1.529303    -0.107811     1.700000     1.200000
   -2.853781    -2.515042     0.097470     1.200000     1.200000
   -1.554591     0.994289    -1.104230     1.700000     1.200000
   -0.911886     1.867512    -0.990956     1.200000     1.200000
   -2.077836     1.126314    -2.059864     1.200000     1.200000
   -2.577324     0.940508     0.036133     1.700000     1.200000
   -3.390356     1.639895    -0.168129     1.200000     1.200000
   -2.121249     1.285571     0.972240     1.200000     1.200000

--link1--
%chk=meso-TS_49_2_xp-115.chk
%nproc=24
%mem=48GB
#p uwb97xd guess=mix def2tzvp 
# scrf=(iefpcm,solvent=Cyclohexane,read) nosym guess=only pop=none 

endo-2
xp-pcm for eta=3

0 1
  6  -3.127753  -0.441522   0.261122 
  6  -0.719921  -0.248221  -1.219838 
  1  -4.073595  -0.535125   0.782132 
  1   0.234126  -0.164733  -1.725204 
  6   1.160074   1.424218   0.782600 
  6   0.719921   0.248221   1.219838 
  1   0.566933   2.320735   0.917353 
  1  -0.234126   0.164733   1.725204 
  6   1.554591  -0.994289   1.104230 
  1   2.077836  -1.126314   2.059864 
  1   0.911886  -1.867512   0.990956 
  6   2.453641   1.529303   0.107811 
  1   2.853781   2.515042  -0.097470 
  6   3.127753   0.441522  -0.261122 
  1   4.073595   0.535125  -0.782132 
  6   2.577324  -0.940508  -0.036133 
  1   2.121249  -1.285571  -0.972240 
  1   3.390356  -1.639895   0.168128 
  6  -1.160074  -1.424218  -0.782600 
  1  -0.566933  -2.320735  -0.917353 
  6  -2.453641  -1.529303  -0.107811 
  1  -2.853781  -2.515042   0.097470 
  6  -1.554591   0.994289  -1.104230 
  1  -0.911886   1.867512  -0.990956 
  1  -2.077836   1.126314  -2.059864 
  6  -2.577324   0.940508   0.036133 
  1  -3.390356   1.639895  -0.168129 
  1  -2.121249   1.285571   0.972240 

qrep pcmdoc geomview  nodis nocav g03defaults tsare=0.075 
nsfe=28
NVESolv=36  SolvMW=84.1595   Rsolv=2.815 
eps=2.0165 RhoS=0.7781

   -3.127753    -0.441522     0.261122     1.700000     1.150000
   -0.719921    -0.248221    -1.219838     1.700000     1.150000
   -4.073595    -0.535125     0.782132     1.200000     1.150000
    0.234126    -0.164733    -1.725204     1.200000     1.150000
    1.160074     1.424218     0.782600     1.700000     1.150000
    0.719921     0.248221     1.219838     1.700000     1.150000
    0.566933     2.320735     0.917353     1.200000     1.150000
   -0.234126     0.164733     1.725204     1.200000     1.150000
    1.554591    -0.994289     1.104230     1.700000     1.150000
    2.077836    -1.126314     2.059864     1.200000     1.150000
    0.911886    -1.867512     0.990956     1.200000     1.150000
    2.453641     1.529303     0.107811     1.700000     1.150000
    2.853781     2.515042    -0.097470     1.200000     1.150000
    3.127753     0.441522    -0.261122     1.700000     1.150000
    4.073595     0.535125    -0.782132     1.200000     1.150000
    2.577324    -0.940508    -0.036133     1.700000     1.150000
    2.121249    -1.285571    -0.972240     1.200000     1.150000
    3.390356    -1.639895     0.168128     1.200000     1.150000
   -1.160074    -1.424218    -0.782600     1.700000     1.150000
   -0.566933    -2.320735    -0.917353     1.200000     1.150000
   -2.453641    -1.529303    -0.107811     1.700000     1.150000
   -2.853781    -2.515042     0.097470     1.200000     1.150000
   -1.554591     0.994289    -1.104230     1.700000     1.150000
   -0.911886     1.867512    -0.990956     1.200000     1.150000
   -2.077836     1.126314    -2.059864     1.200000     1.150000
   -2.577324     0.940508     0.036133     1.700000     1.150000
   -3.390356     1.639895    -0.168129     1.200000     1.150000
   -2.121249     1.285571     0.972240     1.200000     1.150000

--link1--
%chk=meso-TS_49_2_xp-110.chk
%nproc=24
%mem=48GB
#p uwb97xd guess=mix def2tzvp 
# scrf=(iefpcm,solvent=Cyclohexane,read) nosym guess=only pop=none 

endo-2
xp-pcm for eta=3

0 1
  6  -3.127753  -0.441522   0.261122 
  6  -0.719921  -0.248221  -1.219838 
  1  -4.073595  -0.535125   0.782132 
  1   0.234126  -0.164733  -1.725204 
  6   1.160074   1.424218   0.782600 
  6   0.719921   0.248221   1.219838 
  1   0.566933   2.320735   0.917353 
  1  -0.234126   0.164733   1.725204 
  6   1.554591  -0.994289   1.104230 
  1   2.077836  -1.126314   2.059864 
  1   0.911886  -1.867512   0.990956 
  6   2.453641   1.529303   0.107811 
  1   2.853781   2.515042  -0.097470 
  6   3.127753   0.441522  -0.261122 
  1   4.073595   0.535125  -0.782132 
  6   2.577324  -0.940508  -0.036133 
  1   2.121249  -1.285571  -0.972240 
  1   3.390356  -1.639895   0.168128 
  6  -1.160074  -1.424218  -0.782600 
  1  -0.566933  -2.320735  -0.917353 
  6  -2.453641  -1.529303  -0.107811 
  1  -2.853781  -2.515042   0.097470 
  6  -1.554591   0.994289  -1.104230 
  1  -0.911886   1.867512  -0.990956 
  1  -2.077836   1.126314  -2.059864 
  6  -2.577324   0.940508   0.036133 
  1  -3.390356   1.639895  -0.168129 
  1  -2.121249   1.285571   0.972240 

qrep pcmdoc geomview  nodis nocav g03defaults tsare=0.075 
nsfe=28
NVESolv=36  SolvMW=84.1595   Rsolv=2.815 
eps=2.0165 RhoS=0.7781

   -3.127753    -0.441522     0.261122     1.700000     1.100000
   -0.719921    -0.248221    -1.219838     1.700000     1.100000
   -4.073595    -0.535125     0.782132     1.200000     1.100000
    0.234126    -0.164733    -1.725204     1.200000     1.100000
    1.160074     1.424218     0.782600     1.700000     1.100000
    0.719921     0.248221     1.219838     1.700000     1.100000
    0.566933     2.320735     0.917353     1.200000     1.100000
   -0.234126     0.164733     1.725204     1.200000     1.100000
    1.554591    -0.994289     1.104230     1.700000     1.100000
    2.077836    -1.126314     2.059864     1.200000     1.100000
    0.911886    -1.867512     0.990956     1.200000     1.100000
    2.453641     1.529303     0.107811     1.700000     1.100000
    2.853781     2.515042    -0.097470     1.200000     1.100000
    3.127753     0.441522    -0.261122     1.700000     1.100000
    4.073595     0.535125    -0.782132     1.200000     1.100000
    2.577324    -0.940508    -0.036133     1.700000     1.100000
    2.121249    -1.285571    -0.972240     1.200000     1.100000
    3.390356    -1.639895     0.168128     1.200000     1.100000
   -1.160074    -1.424218    -0.782600     1.700000     1.100000
   -0.566933    -2.320735    -0.917353     1.200000     1.100000
   -2.453641    -1.529303    -0.107811     1.700000     1.100000
   -2.853781    -2.515042     0.097470     1.200000     1.100000
   -1.554591     0.994289    -1.104230     1.700000     1.100000
   -0.911886     1.867512    -0.990956     1.200000     1.100000
   -2.077836     1.126314    -2.059864     1.200000     1.100000
   -2.577324     0.940508     0.036133     1.700000     1.100000
   -3.390356     1.639895    -0.168129     1.200000     1.100000
   -2.121249     1.285571     0.972240     1.200000     1.100000

--link1--
%chk=meso-TS_49_2_xp-105.chk
%nproc=24
%mem=48GB
#p uwb97xd guess=mix def2tzvp 
# scrf=(iefpcm,solvent=Cyclohexane,read) nosym guess=only pop=none 

endo-2
xp-pcm for eta=3

0 1
  6  -3.127753  -0.441522   0.261122 
  6  -0.719921  -0.248221  -1.219838 
  1  -4.073595  -0.535125   0.782132 
  1   0.234126  -0.164733  -1.725204 
  6   1.160074   1.424218   0.782600 
  6   0.719921   0.248221   1.219838 
  1   0.566933   2.320735   0.917353 
  1  -0.234126   0.164733   1.725204 
  6   1.554591  -0.994289   1.104230 
  1   2.077836  -1.126314   2.059864 
  1   0.911886  -1.867512   0.990956 
  6   2.453641   1.529303   0.107811 
  1   2.853781   2.515042  -0.097470 
  6   3.127753   0.441522  -0.261122 
  1   4.073595   0.535125  -0.782132 
  6   2.577324  -0.940508  -0.036133 
  1   2.121249  -1.285571  -0.972240 
  1   3.390356  -1.639895   0.168128 
  6  -1.160074  -1.424218  -0.782600 
  1  -0.566933  -2.320735  -0.917353 
  6  -2.453641  -1.529303  -0.107811 
  1  -2.853781  -2.515042   0.097470 
  6  -1.554591   0.994289  -1.104230 
  1  -0.911886   1.867512  -0.990956 
  1  -2.077836   1.126314  -2.059864 
  6  -2.577324   0.940508   0.036133 
  1  -3.390356   1.639895  -0.168129 
  1  -2.121249   1.285571   0.972240 

qrep pcmdoc geomview  nodis nocav g03defaults tsare=0.075 
nsfe=28
NVESolv=36  SolvMW=84.1595   Rsolv=2.815 
eps=2.0165 RhoS=0.7781

   -3.127753    -0.441522     0.261122     1.700000     1.050000
   -0.719921    -0.248221    -1.219838     1.700000     1.050000
   -4.073595    -0.535125     0.782132     1.200000     1.050000
    0.234126    -0.164733    -1.725204     1.200000     1.050000
    1.160074     1.424218     0.782600     1.700000     1.050000
    0.719921     0.248221     1.219838     1.700000     1.050000
    0.566933     2.320735     0.917353     1.200000     1.050000
   -0.234126     0.164733     1.725204     1.200000     1.050000
    1.554591    -0.994289     1.104230     1.700000     1.050000
    2.077836    -1.126314     2.059864     1.200000     1.050000
    0.911886    -1.867512     0.990956     1.200000     1.050000
    2.453641     1.529303     0.107811     1.700000     1.050000
    2.853781     2.515042    -0.097470     1.200000     1.050000
    3.127753     0.441522    -0.261122     1.700000     1.050000
    4.073595     0.535125    -0.782132     1.200000     1.050000
    2.577324    -0.940508    -0.036133     1.700000     1.050000
    2.121249    -1.285571    -0.972240     1.200000     1.050000
    3.390356    -1.639895     0.168128     1.200000     1.050000
   -1.160074    -1.424218    -0.782600     1.700000     1.050000
   -0.566933    -2.320735    -0.917353     1.200000     1.050000
   -2.453641    -1.529303    -0.107811     1.700000     1.050000
   -2.853781    -2.515042     0.097470     1.200000     1.050000
   -1.554591     0.994289    -1.104230     1.700000     1.050000
   -0.911886     1.867512    -0.990956     1.200000     1.050000
   -2.077836     1.126314    -2.059864     1.200000     1.050000
   -2.577324     0.940508     0.036133     1.700000     1.050000
   -3.390356     1.639895    -0.168129     1.200000     1.050000
   -2.121249     1.285571     0.972240     1.200000     1.050000

--link1--
%chk=meso-TS_49_2_xp-100.chk
%nproc=24
%mem=48GB
#p uwb97xd guess=mix def2tzvp 
# scrf=(iefpcm,solvent=Cyclohexane,read) nosym guess=only pop=none 

endo-2
xp-pcm for eta=3

0 1
  6  -3.127753  -0.441522   0.261122 
  6  -0.719921  -0.248221  -1.219838 
  1  -4.073595  -0.535125   0.782132 
  1   0.234126  -0.164733  -1.725204 
  6   1.160074   1.424218   0.782600 
  6   0.719921   0.248221   1.219838 
  1   0.566933   2.320735   0.917353 
  1  -0.234126   0.164733   1.725204 
  6   1.554591  -0.994289   1.104230 
  1   2.077836  -1.126314   2.059864 
  1   0.911886  -1.867512   0.990956 
  6   2.453641   1.529303   0.107811 
  1   2.853781   2.515042  -0.097470 
  6   3.127753   0.441522  -0.261122 
  1   4.073595   0.535125  -0.782132 
  6   2.577324  -0.940508  -0.036133 
  1   2.121249  -1.285571  -0.972240 
  1   3.390356  -1.639895   0.168128 
  6  -1.160074  -1.424218  -0.782600 
  1  -0.566933  -2.320735  -0.917353 
  6  -2.453641  -1.529303  -0.107811 
  1  -2.853781  -2.515042   0.097470 
  6  -1.554591   0.994289  -1.104230 
  1  -0.911886   1.867512  -0.990956 
  1  -2.077836   1.126314  -2.059864 
  6  -2.577324   0.940508   0.036133 
  1  -3.390356   1.639895  -0.168129 
  1  -2.121249   1.285571   0.972240 

qrep pcmdoc geomview  nodis nocav g03defaults tsare=0.075 
nsfe=28
NVESolv=36  SolvMW=84.1595   Rsolv=2.815 
eps=2.0165 RhoS=0.7781

   -3.127753    -0.441522     0.261122     1.700000     1.000000
   -0.719921    -0.248221    -1.219838     1.700000     1.000000
   -4.073595    -0.535125     0.782132     1.200000     1.000000
    0.234126    -0.164733    -1.725204     1.200000     1.000000
    1.160074     1.424218     0.782600     1.700000     1.000000
    0.719921     0.248221     1.219838     1.700000     1.000000
    0.566933     2.320735     0.917353     1.200000     1.000000
   -0.234126     0.164733     1.725204     1.200000     1.000000
    1.554591    -0.994289     1.104230     1.700000     1.000000
    2.077836    -1.126314     2.059864     1.200000     1.000000
    0.911886    -1.867512     0.990956     1.200000     1.000000
    2.453641     1.529303     0.107811     1.700000     1.000000
    2.853781     2.515042    -0.097470     1.200000     1.000000
    3.127753     0.441522    -0.261122     1.700000     1.000000
    4.073595     0.535125    -0.782132     1.200000     1.000000
    2.577324    -0.940508    -0.036133     1.700000     1.000000
    2.121249    -1.285571    -0.972240     1.200000     1.000000
    3.390356    -1.639895     0.168128     1.200000     1.000000
   -1.160074    -1.424218    -0.782600     1.700000     1.000000
   -0.566933    -2.320735    -0.917353     1.200000     1.000000
   -2.453641    -1.529303    -0.107811     1.700000     1.000000
   -2.853781    -2.515042     0.097470     1.200000     1.000000
   -1.554591     0.994289    -1.104230     1.700000     1.000000
   -0.911886     1.867512    -0.990956     1.200000     1.000000
   -2.077836     1.126314    -2.059864     1.200000     1.000000
   -2.577324     0.940508     0.036133     1.700000     1.000000
   -3.390356     1.639895    -0.168129     1.200000     1.000000
   -2.121249     1.285571     0.972240     1.200000     1.000000

--link1--
%chk=meso-TS_49_2_xp-0975.chk
%nproc=24
%mem=48GB
#p uwb97xd guess=mix def2tzvp 
# scrf=(iefpcm,solvent=Cyclohexane,read) nosym guess=only pop=none 

endo-2
xp-pcm for eta=3

0 1
  6  -3.127753  -0.441522   0.261122 
  6  -0.719921  -0.248221  -1.219838 
  1  -4.073595  -0.535125   0.782132 
  1   0.234126  -0.164733  -1.725204 
  6   1.160074   1.424218   0.782600 
  6   0.719921   0.248221   1.219838 
  1   0.566933   2.320735   0.917353 
  1  -0.234126   0.164733   1.725204 
  6   1.554591  -0.994289   1.104230 
  1   2.077836  -1.126314   2.059864 
  1   0.911886  -1.867512   0.990956 
  6   2.453641   1.529303   0.107811 
  1   2.853781   2.515042  -0.097470 
  6   3.127753   0.441522  -0.261122 
  1   4.073595   0.535125  -0.782132 
  6   2.577324  -0.940508  -0.036133 
  1   2.121249  -1.285571  -0.972240 
  1   3.390356  -1.639895   0.168128 
  6  -1.160074  -1.424218  -0.782600 
  1  -0.566933  -2.320735  -0.917353 
  6  -2.453641  -1.529303  -0.107811 
  1  -2.853781  -2.515042   0.097470 
  6  -1.554591   0.994289  -1.104230 
  1  -0.911886   1.867512  -0.990956 
  1  -2.077836   1.126314  -2.059864 
  6  -2.577324   0.940508   0.036133 
  1  -3.390356   1.639895  -0.168129 
  1  -2.121249   1.285571   0.972240 

qrep pcmdoc geomview  nodis nocav g03defaults tsare=0.075 
nsfe=28
NVESolv=36  SolvMW=84.1595   Rsolv=2.815 
eps=2.0165 RhoS=0.7781

   -3.127753    -0.441522     0.261122     1.700000     0.975000
   -0.719921    -0.248221    -1.219838     1.700000     0.975000
   -4.073595    -0.535125     0.782132     1.200000     0.975000
    0.234126    -0.164733    -1.725204     1.200000     0.975000
    1.160074     1.424218     0.782600     1.700000     0.975000
    0.719921     0.248221     1.219838     1.700000     0.975000
    0.566933     2.320735     0.917353     1.200000     0.975000
   -0.234126     0.164733     1.725204     1.200000     0.975000
    1.554591    -0.994289     1.104230     1.700000     0.975000
    2.077836    -1.126314     2.059864     1.200000     0.975000
    0.911886    -1.867512     0.990956     1.200000     0.975000
    2.453641     1.529303     0.107811     1.700000     0.975000
    2.853781     2.515042    -0.097470     1.200000     0.975000
    3.127753     0.441522    -0.261122     1.700000     0.975000
    4.073595     0.535125    -0.782132     1.200000     0.975000
    2.577324    -0.940508    -0.036133     1.700000     0.975000
    2.121249    -1.285571    -0.972240     1.200000     0.975000
    3.390356    -1.639895     0.168128     1.200000     0.975000
   -1.160074    -1.424218    -0.782600     1.700000     0.975000
   -0.566933    -2.320735    -0.917353     1.200000     0.975000
   -2.453641    -1.529303    -0.107811     1.700000     0.975000
   -2.853781    -2.515042     0.097470     1.200000     0.975000
   -1.554591     0.994289    -1.104230     1.700000     0.975000
   -0.911886     1.867512    -0.990956     1.200000     0.975000
   -2.077836     1.126314    -2.059864     1.200000     0.975000
   -2.577324     0.940508     0.036133     1.700000     0.975000
   -3.390356     1.639895    -0.168129     1.200000     0.975000
   -2.121249     1.285571     0.972240     1.200000     0.975000

--link1--
%chk=meso-TS_49_2_xp-095.chk
%nproc=24
%mem=48GB
#p uwb97xd guess=mix def2tzvp 
# scrf=(iefpcm,solvent=Cyclohexane,read) nosym guess=only pop=none 

endo-2
xp-pcm for eta=3

0 1
  6  -3.127753  -0.441522   0.261122 
  6  -0.719921  -0.248221  -1.219838 
  1  -4.073595  -0.535125   0.782132 
  1   0.234126  -0.164733  -1.725204 
  6   1.160074   1.424218   0.782600 
  6   0.719921   0.248221   1.219838 
  1   0.566933   2.320735   0.917353 
  1  -0.234126   0.164733   1.725204 
  6   1.554591  -0.994289   1.104230 
  1   2.077836  -1.126314   2.059864 
  1   0.911886  -1.867512   0.990956 
  6   2.453641   1.529303   0.107811 
  1   2.853781   2.515042  -0.097470 
  6   3.127753   0.441522  -0.261122 
  1   4.073595   0.535125  -0.782132 
  6   2.577324  -0.940508  -0.036133 
  1   2.121249  -1.285571  -0.972240 
  1   3.390356  -1.639895   0.168128 
  6  -1.160074  -1.424218  -0.782600 
  1  -0.566933  -2.320735  -0.917353 
  6  -2.453641  -1.529303  -0.107811 
  1  -2.853781  -2.515042   0.097470 
  6  -1.554591   0.994289  -1.104230 
  1  -0.911886   1.867512  -0.990956 
  1  -2.077836   1.126314  -2.059864 
  6  -2.577324   0.940508   0.036133 
  1  -3.390356   1.639895  -0.168129 
  1  -2.121249   1.285571   0.972240 

qrep pcmdoc geomview  nodis nocav g03defaults tsare=0.075 
nsfe=28
NVESolv=36  SolvMW=84.1595   Rsolv=2.815 
eps=2.0165 RhoS=0.7781

   -3.127753    -0.441522     0.261122     1.700000     0.950000
   -0.719921    -0.248221    -1.219838     1.700000     0.950000
   -4.073595    -0.535125     0.782132     1.200000     0.950000
    0.234126    -0.164733    -1.725204     1.200000     0.950000
    1.160074     1.424218     0.782600     1.700000     0.950000
    0.719921     0.248221     1.219838     1.700000     0.950000
    0.566933     2.320735     0.917353     1.200000     0.950000
   -0.234126     0.164733     1.725204     1.200000     0.950000
    1.554591    -0.994289     1.104230     1.700000     0.950000
    2.077836    -1.126314     2.059864     1.200000     0.950000
    0.911886    -1.867512     0.990956     1.200000     0.950000
    2.453641     1.529303     0.107811     1.700000     0.950000
    2.853781     2.515042    -0.097470     1.200000     0.950000
    3.127753     0.441522    -0.261122     1.700000     0.950000
    4.073595     0.535125    -0.782132     1.200000     0.950000
    2.577324    -0.940508    -0.036133     1.700000     0.950000
    2.121249    -1.285571    -0.972240     1.200000     0.950000
    3.390356    -1.639895     0.168128     1.200000     0.950000
   -1.160074    -1.424218    -0.782600     1.700000     0.950000
   -0.566933    -2.320735    -0.917353     1.200000     0.950000
   -2.453641    -1.529303    -0.107811     1.700000     0.950000
   -2.853781    -2.515042     0.097470     1.200000     0.950000
   -1.554591     0.994289    -1.104230     1.700000     0.950000
   -0.911886     1.867512    -0.990956     1.200000     0.950000
   -2.077836     1.126314    -2.059864     1.200000     0.950000
   -2.577324     0.940508     0.036133     1.700000     0.950000
   -3.390356     1.639895    -0.168129     1.200000     0.950000
   -2.121249     1.285571     0.972240     1.200000     0.950000

