%chk=meso-TS_25_1_xp-12.chk
%nproc=24
%mem=48GB
#p uwb97xd guess=mix def2tzvp 
# scrf=(iefpcm,solvent=Cyclohexane,read) nosym 6d 10f 

endo-2
xp-pcm for eta=3

0 1
  6  -3.119867  -0.423059   0.242362 
  6  -0.399464  -0.121031  -0.665456 
  1  -4.102983  -0.545295   0.679967 
  1   0.332815  -0.116775  -1.477337 
  6   1.102005   1.439151   0.627583 
  6   0.399464   0.121031   0.665456 
  1   0.570347   2.335794   0.919988 
  1  -0.332815   0.116775   1.477337 
  6   1.424818  -0.986752   0.942031 
  1   1.823276  -0.830898   1.947861 
  1   0.940841  -1.964613   0.940308 
  6   2.393506   1.531561   0.139068 
  1   2.848769   2.511456   0.044365 
  6   3.119867   0.423059  -0.242362 
  1   4.102983   0.545295  -0.679967 
  6   2.585761  -0.961115  -0.052535 
  1   2.266469  -1.369268  -1.020958 
  1   3.384717  -1.624588   0.289923 
  6  -1.102005  -1.439151  -0.627583 
  1  -0.570347  -2.335794  -0.919988 
  6  -2.393506  -1.531561  -0.139068 
  1  -2.848769  -2.511456  -0.044365 
  6  -1.424818   0.986752  -0.942031 
  1  -0.940841   1.964613  -0.940309 
  1  -1.823276   0.830898  -1.947861 
  6  -2.585761   0.961115   0.052535 
  1  -3.384717   1.624588  -0.289923 
  1  -2.266469   1.369268   1.020958 

qrep pcmdoc geomview  nodis nocav g03defaults tsare=0.075 
nsfe=28
NVESolv=36  SolvMW=84.1595   Rsolv=2.815 
eps=2.0165 RhoS=0.778099999999998

   -3.119867    -0.423059     0.242362     1.700000     1.200000
   -0.399464    -0.121031    -0.665456     1.700000     1.200000
   -4.102983    -0.545295     0.679967     1.200000     1.200000
    0.332815    -0.116775    -1.477337     1.200000     1.200000
    1.102005     1.439151     0.627583     1.700000     1.200000
    0.399464     0.121031     0.665456     1.700000     1.200000
    0.570347     2.335794     0.919988     1.200000     1.200000
   -0.332815     0.116775     1.477337     1.200000     1.200000
    1.424818    -0.986752     0.942031     1.700000     1.200000
    1.823276    -0.830898     1.947861     1.200000     1.200000
    0.940841    -1.964613     0.940308     1.200000     1.200000
    2.393506     1.531561     0.139068     1.700000     1.200000
    2.848769     2.511456     0.044365     1.200000     1.200000
    3.119867     0.423059    -0.242362     1.700000     1.200000
    4.102983     0.545295    -0.679967     1.200000     1.200000
    2.585761    -0.961115    -0.052535     1.700000     1.200000
    2.266469    -1.369268    -1.020958     1.200000     1.200000
    3.384717    -1.624588     0.289923     1.200000     1.200000
   -1.102005    -1.439151    -0.627583     1.700000     1.200000
   -0.570347    -2.335794    -0.919988     1.200000     1.200000
   -2.393506    -1.531561    -0.139068     1.700000     1.200000
   -2.848769    -2.511456    -0.044365     1.200000     1.200000
   -1.424818     0.986752    -0.942031     1.700000     1.200000
   -0.940841     1.964613    -0.940309     1.200000     1.200000
   -1.823276     0.830898    -1.947861     1.200000     1.200000
   -2.585761     0.961115     0.052535     1.700000     1.200000
   -3.384717     1.624588    -0.289923     1.200000     1.200000
   -2.266469     1.369268     1.020958     1.200000     1.200000

--link1--
%chk=meso-TS_25_1_xp-115.chk
%nproc=24
%mem=48GB
#p uwb97xd guess=mix def2tzvp 
# scrf=(iefpcm,solvent=Cyclohexane,read) nosym 6d 10f 

endo-2
xp-pcm for eta=3

0 1
  6  -3.119867  -0.423059   0.242362 
  6  -0.399464  -0.121031  -0.665456 
  1  -4.102983  -0.545295   0.679967 
  1   0.332815  -0.116775  -1.477337 
  6   1.102005   1.439151   0.627583 
  6   0.399464   0.121031   0.665456 
  1   0.570347   2.335794   0.919988 
  1  -0.332815   0.116775   1.477337 
  6   1.424818  -0.986752   0.942031 
  1   1.823276  -0.830898   1.947861 
  1   0.940841  -1.964613   0.940308 
  6   2.393506   1.531561   0.139068 
  1   2.848769   2.511456   0.044365 
  6   3.119867   0.423059  -0.242362 
  1   4.102983   0.545295  -0.679967 
  6   2.585761  -0.961115  -0.052535 
  1   2.266469  -1.369268  -1.020958 
  1   3.384717  -1.624588   0.289923 
  6  -1.102005  -1.439151  -0.627583 
  1  -0.570347  -2.335794  -0.919988 
  6  -2.393506  -1.531561  -0.139068 
  1  -2.848769  -2.511456  -0.044365 
  6  -1.424818   0.986752  -0.942031 
  1  -0.940841   1.964613  -0.940309 
  1  -1.823276   0.830898  -1.947861 
  6  -2.585761   0.961115   0.052535 
  1  -3.384717   1.624588  -0.289923 
  1  -2.266469   1.369268   1.020958 

qrep pcmdoc geomview  nodis nocav g03defaults tsare=0.075 
nsfe=28
NVESolv=36  SolvMW=84.1595   Rsolv=2.815 
eps=2.08074995319988 RhoS=0.87957140140931

   -3.119867    -0.423059     0.242362     1.700000     1.150000
   -0.399464    -0.121031    -0.665456     1.700000     1.150000
   -4.102983    -0.545295     0.679967     1.200000     1.150000
    0.332815    -0.116775    -1.477337     1.200000     1.150000
    1.102005     1.439151     0.627583     1.700000     1.150000
    0.399464     0.121031     0.665456     1.700000     1.150000
    0.570347     2.335794     0.919988     1.200000     1.150000
   -0.332815     0.116775     1.477337     1.200000     1.150000
    1.424818    -0.986752     0.942031     1.700000     1.150000
    1.823276    -0.830898     1.947861     1.200000     1.150000
    0.940841    -1.964613     0.940308     1.200000     1.150000
    2.393506     1.531561     0.139068     1.700000     1.150000
    2.848769     2.511456     0.044365     1.200000     1.150000
    3.119867     0.423059    -0.242362     1.700000     1.150000
    4.102983     0.545295    -0.679967     1.200000     1.150000
    2.585761    -0.961115    -0.052535     1.700000     1.150000
    2.266469    -1.369268    -1.020958     1.200000     1.150000
    3.384717    -1.624588     0.289923     1.200000     1.150000
   -1.102005    -1.439151    -0.627583     1.700000     1.150000
   -0.570347    -2.335794    -0.919988     1.200000     1.150000
   -2.393506    -1.531561    -0.139068     1.700000     1.150000
   -2.848769    -2.511456    -0.044365     1.200000     1.150000
   -1.424818     0.986752    -0.942031     1.700000     1.150000
   -0.940841     1.964613    -0.940309     1.200000     1.150000
   -1.823276     0.830898    -1.947861     1.200000     1.150000
   -2.585761     0.961115     0.052535     1.700000     1.150000
   -3.384717     1.624588    -0.289923     1.200000     1.150000
   -2.266469     1.369268     1.020958     1.200000     1.150000

--link1--
%chk=meso-TS_25_1_xp-110.chk
%nproc=24
%mem=48GB
#p uwb97xd guess=mix def2tzvp 
# scrf=(iefpcm,solvent=Cyclohexane,read) nosym 6d 10f 

endo-2
xp-pcm for eta=3

0 1
  6  -3.119867  -0.423059   0.242362 
  6  -0.399464  -0.121031  -0.665456 
  1  -4.102983  -0.545295   0.679967 
  1   0.332815  -0.116775  -1.477337 
  6   1.102005   1.439151   0.627583 
  6   0.399464   0.121031   0.665456 
  1   0.570347   2.335794   0.919988 
  1  -0.332815   0.116775   1.477337 
  6   1.424818  -0.986752   0.942031 
  1   1.823276  -0.830898   1.947861 
  1   0.940841  -1.964613   0.940308 
  6   2.393506   1.531561   0.139068 
  1   2.848769   2.511456   0.044365 
  6   3.119867   0.423059  -0.242362 
  1   4.102983   0.545295  -0.679967 
  6   2.585761  -0.961115  -0.052535 
  1   2.266469  -1.369268  -1.020958 
  1   3.384717  -1.624588   0.289923 
  6  -1.102005  -1.439151  -0.627583 
  1  -0.570347  -2.335794  -0.919988 
  6  -2.393506  -1.531561  -0.139068 
  1  -2.848769  -2.511456  -0.044365 
  6  -1.424818   0.986752  -0.942031 
  1  -0.940841   1.964613  -0.940309 
  1  -1.823276   0.830898  -1.947861 
  6  -2.585761   0.961115   0.052535 
  1  -3.384717   1.624588  -0.289923 
  1  -2.266469   1.369268   1.020958 

qrep pcmdoc geomview  nodis nocav g03defaults tsare=0.075 
nsfe=28
NVESolv=36  SolvMW=84.1595   Rsolv=2.815 
eps=2.14797859684703 RhoS=0.992403372535132

   -3.119867    -0.423059     0.242362     1.700000     1.100000
   -0.399464    -0.121031    -0.665456     1.700000     1.100000
   -4.102983    -0.545295     0.679967     1.200000     1.100000
    0.332815    -0.116775    -1.477337     1.200000     1.100000
    1.102005     1.439151     0.627583     1.700000     1.100000
    0.399464     0.121031     0.665456     1.700000     1.100000
    0.570347     2.335794     0.919988     1.200000     1.100000
   -0.332815     0.116775     1.477337     1.200000     1.100000
    1.424818    -0.986752     0.942031     1.700000     1.100000
    1.823276    -0.830898     1.947861     1.200000     1.100000
    0.940841    -1.964613     0.940308     1.200000     1.100000
    2.393506     1.531561     0.139068     1.700000     1.100000
    2.848769     2.511456     0.044365     1.200000     1.100000
    3.119867     0.423059    -0.242362     1.700000     1.100000
    4.102983     0.545295    -0.679967     1.200000     1.100000
    2.585761    -0.961115    -0.052535     1.700000     1.100000
    2.266469    -1.369268    -1.020958     1.200000     1.100000
    3.384717    -1.624588     0.289923     1.200000     1.100000
   -1.102005    -1.439151    -0.627583     1.700000     1.100000
   -0.570347    -2.335794    -0.919988     1.200000     1.100000
   -2.393506    -1.531561    -0.139068     1.700000     1.100000
   -2.848769    -2.511456    -0.044365     1.200000     1.100000
   -1.424818     0.986752    -0.942031     1.700000     1.100000
   -0.940841     1.964613    -0.940309     1.200000     1.100000
   -1.823276     0.830898    -1.947861     1.200000     1.100000
   -2.585761     0.961115     0.052535     1.700000     1.100000
   -3.384717     1.624588    -0.289923     1.200000     1.100000
   -2.266469     1.369268     1.020958     1.200000     1.100000

--link1--
%chk=meso-TS_25_1_xp-105.chk
%nproc=24
%mem=48GB
#p uwb97xd guess=mix def2tzvp 
# scrf=(iefpcm,solvent=Cyclohexane,read) nosym 6d 10f 

endo-2
xp-pcm for eta=3

0 1
  6  -3.119867  -0.423059   0.242362 
  6  -0.399464  -0.121031  -0.665456 
  1  -4.102983  -0.545295   0.679967 
  1   0.332815  -0.116775  -1.477337 
  6   1.102005   1.439151   0.627583 
  6   0.399464   0.121031   0.665456 
  1   0.570347   2.335794   0.919988 
  1  -0.332815   0.116775   1.477337 
  6   1.424818  -0.986752   0.942031 
  1   1.823276  -0.830898   1.947861 
  1   0.940841  -1.964613   0.940308 
  6   2.393506   1.531561   0.139068 
  1   2.848769   2.511456   0.044365 
  6   3.119867   0.423059  -0.242362 
  1   4.102983   0.545295  -0.679967 
  6   2.585761  -0.961115  -0.052535 
  1   2.266469  -1.369268  -1.020958 
  1   3.384717  -1.624588   0.289923 
  6  -1.102005  -1.439151  -0.627583 
  1  -0.570347  -2.335794  -0.919988 
  6  -2.393506  -1.531561  -0.139068 
  1  -2.848769  -2.511456  -0.044365 
  6  -1.424818   0.986752  -0.942031 
  1  -0.940841   1.964613  -0.940309 
  1  -1.823276   0.830898  -1.947861 
  6  -2.585761   0.961115   0.052535 
  1  -3.384717   1.624588  -0.289923 
  1  -2.266469   1.369268   1.020958 

qrep pcmdoc geomview  nodis nocav g03defaults tsare=0.075 
nsfe=28
NVESolv=36  SolvMW=84.1595   Rsolv=2.815 
eps=2.22376880117094 RhoS=1.12776705486046

   -3.119867    -0.423059     0.242362     1.700000     1.050000
   -0.399464    -0.121031    -0.665456     1.700000     1.050000
   -4.102983    -0.545295     0.679967     1.200000     1.050000
    0.332815    -0.116775    -1.477337     1.200000     1.050000
    1.102005     1.439151     0.627583     1.700000     1.050000
    0.399464     0.121031     0.665456     1.700000     1.050000
    0.570347     2.335794     0.919988     1.200000     1.050000
   -0.332815     0.116775     1.477337     1.200000     1.050000
    1.424818    -0.986752     0.942031     1.700000     1.050000
    1.823276    -0.830898     1.947861     1.200000     1.050000
    0.940841    -1.964613     0.940308     1.200000     1.050000
    2.393506     1.531561     0.139068     1.700000     1.050000
    2.848769     2.511456     0.044365     1.200000     1.050000
    3.119867     0.423059    -0.242362     1.700000     1.050000
    4.102983     0.545295    -0.679967     1.200000     1.050000
    2.585761    -0.961115    -0.052535     1.700000     1.050000
    2.266469    -1.369268    -1.020958     1.200000     1.050000
    3.384717    -1.624588     0.289923     1.200000     1.050000
   -1.102005    -1.439151    -0.627583     1.700000     1.050000
   -0.570347    -2.335794    -0.919988     1.200000     1.050000
   -2.393506    -1.531561    -0.139068     1.700000     1.050000
   -2.848769    -2.511456    -0.044365     1.200000     1.050000
   -1.424818     0.986752    -0.942031     1.700000     1.050000
   -0.940841     1.964613    -0.940309     1.200000     1.050000
   -1.823276     0.830898    -1.947861     1.200000     1.050000
   -2.585761     0.961115     0.052535     1.700000     1.050000
   -3.384717     1.624588    -0.289923     1.200000     1.050000
   -2.266469     1.369268     1.020958     1.200000     1.050000

--link1--
%chk=meso-TS_25_1_xp-100.chk
%nproc=24
%mem=48GB
#p uwb97xd guess=mix def2tzvp 
# scrf=(iefpcm,solvent=Cyclohexane,read) nosym 6d 10f 

endo-2
xp-pcm for eta=3

0 1
  6  -3.119867  -0.423059   0.242362 
  6  -0.399464  -0.121031  -0.665456 
  1  -4.102983  -0.545295   0.679967 
  1   0.332815  -0.116775  -1.477337 
  6   1.102005   1.439151   0.627583 
  6   0.399464   0.121031   0.665456 
  1   0.570347   2.335794   0.919988 
  1  -0.332815   0.116775   1.477337 
  6   1.424818  -0.986752   0.942031 
  1   1.823276  -0.830898   1.947861 
  1   0.940841  -1.964613   0.940308 
  6   2.393506   1.531561   0.139068 
  1   2.848769   2.511456   0.044365 
  6   3.119867   0.423059  -0.242362 
  1   4.102983   0.545295  -0.679967 
  6   2.585761  -0.961115  -0.052535 
  1   2.266469  -1.369268  -1.020958 
  1   3.384717  -1.624588   0.289923 
  6  -1.102005  -1.439151  -0.627583 
  1  -0.570347  -2.335794  -0.919988 
  6  -2.393506  -1.531561  -0.139068 
  1  -2.848769  -2.511456  -0.044365 
  6  -1.424818   0.986752  -0.942031 
  1  -0.940841   1.964613  -0.940309 
  1  -1.823276   0.830898  -1.947861 
  6  -2.585761   0.961115   0.052535 
  1  -3.384717   1.624588  -0.289923 
  1  -2.266469   1.369268   1.020958 

qrep pcmdoc geomview  nodis nocav g03defaults tsare=0.075 
nsfe=28
NVESolv=36  SolvMW=84.1595   Rsolv=2.815 
eps=2.30480546666792 RhoS=1.28207131826017

   -3.119867    -0.423059     0.242362     1.700000     1.000000
   -0.399464    -0.121031    -0.665456     1.700000     1.000000
   -4.102983    -0.545295     0.679967     1.200000     1.000000
    0.332815    -0.116775    -1.477337     1.200000     1.000000
    1.102005     1.439151     0.627583     1.700000     1.000000
    0.399464     0.121031     0.665456     1.700000     1.000000
    0.570347     2.335794     0.919988     1.200000     1.000000
   -0.332815     0.116775     1.477337     1.200000     1.000000
    1.424818    -0.986752     0.942031     1.700000     1.000000
    1.823276    -0.830898     1.947861     1.200000     1.000000
    0.940841    -1.964613     0.940308     1.200000     1.000000
    2.393506     1.531561     0.139068     1.700000     1.000000
    2.848769     2.511456     0.044365     1.200000     1.000000
    3.119867     0.423059    -0.242362     1.700000     1.000000
    4.102983     0.545295    -0.679967     1.200000     1.000000
    2.585761    -0.961115    -0.052535     1.700000     1.000000
    2.266469    -1.369268    -1.020958     1.200000     1.000000
    3.384717    -1.624588     0.289923     1.200000     1.000000
   -1.102005    -1.439151    -0.627583     1.700000     1.000000
   -0.570347    -2.335794    -0.919988     1.200000     1.000000
   -2.393506    -1.531561    -0.139068     1.700000     1.000000
   -2.848769    -2.511456    -0.044365     1.200000     1.000000
   -1.424818     0.986752    -0.942031     1.700000     1.000000
   -0.940841     1.964613    -0.940309     1.200000     1.000000
   -1.823276     0.830898    -1.947861     1.200000     1.000000
   -2.585761     0.961115     0.052535     1.700000     1.000000
   -3.384717     1.624588    -0.289923     1.200000     1.000000
   -2.266469     1.369268     1.020958     1.200000     1.000000

--link1--
%chk=meso-TS_25_1_xp-0975.chk
%nproc=24
%mem=48GB
#p uwb97xd guess=mix def2tzvp 
# scrf=(iefpcm,solvent=Cyclohexane,read) nosym 6d 10f 

endo-2
xp-pcm for eta=3

0 1
  6  -3.119867  -0.423059   0.242362 
  6  -0.399464  -0.121031  -0.665456 
  1  -4.102983  -0.545295   0.679967 
  1   0.332815  -0.116775  -1.477337 
  6   1.102005   1.439151   0.627583 
  6   0.399464   0.121031   0.665456 
  1   0.570347   2.335794   0.919988 
  1  -0.332815   0.116775   1.477337 
  6   1.424818  -0.986752   0.942031 
  1   1.823276  -0.830898   1.947861 
  1   0.940841  -1.964613   0.940308 
  6   2.393506   1.531561   0.139068 
  1   2.848769   2.511456   0.044365 
  6   3.119867   0.423059  -0.242362 
  1   4.102983   0.545295  -0.679967 
  6   2.585761  -0.961115  -0.052535 
  1   2.266469  -1.369268  -1.020958 
  1   3.384717  -1.624588   0.289923 
  6  -1.102005  -1.439151  -0.627583 
  1  -0.570347  -2.335794  -0.919988 
  6  -2.393506  -1.531561  -0.139068 
  1  -2.848769  -2.511456  -0.044365 
  6  -1.424818   0.986752  -0.942031 
  1  -0.940841   1.964613  -0.940309 
  1  -1.823276   0.830898  -1.947861 
  6  -2.585761   0.961115   0.052535 
  1  -3.384717   1.624588  -0.289923 
  1  -2.266469   1.369268   1.020958 

qrep pcmdoc geomview  nodis nocav g03defaults tsare=0.075 
nsfe=28
NVESolv=36  SolvMW=84.1595   Rsolv=2.815 
eps=2.34745273026226 RhoS=1.36724935387803

   -3.119867    -0.423059     0.242362     1.700000     0.975000
   -0.399464    -0.121031    -0.665456     1.700000     0.975000
   -4.102983    -0.545295     0.679967     1.200000     0.975000
    0.332815    -0.116775    -1.477337     1.200000     0.975000
    1.102005     1.439151     0.627583     1.700000     0.975000
    0.399464     0.121031     0.665456     1.700000     0.975000
    0.570347     2.335794     0.919988     1.200000     0.975000
   -0.332815     0.116775     1.477337     1.200000     0.975000
    1.424818    -0.986752     0.942031     1.700000     0.975000
    1.823276    -0.830898     1.947861     1.200000     0.975000
    0.940841    -1.964613     0.940308     1.200000     0.975000
    2.393506     1.531561     0.139068     1.700000     0.975000
    2.848769     2.511456     0.044365     1.200000     0.975000
    3.119867     0.423059    -0.242362     1.700000     0.975000
    4.102983     0.545295    -0.679967     1.200000     0.975000
    2.585761    -0.961115    -0.052535     1.700000     0.975000
    2.266469    -1.369268    -1.020958     1.200000     0.975000
    3.384717    -1.624588     0.289923     1.200000     0.975000
   -1.102005    -1.439151    -0.627583     1.700000     0.975000
   -0.570347    -2.335794    -0.919988     1.200000     0.975000
   -2.393506    -1.531561    -0.139068     1.700000     0.975000
   -2.848769    -2.511456    -0.044365     1.200000     0.975000
   -1.424818     0.986752    -0.942031     1.700000     0.975000
   -0.940841     1.964613    -0.940309     1.200000     0.975000
   -1.823276     0.830898    -1.947861     1.200000     0.975000
   -2.585761     0.961115     0.052535     1.700000     0.975000
   -3.384717     1.624588    -0.289923     1.200000     0.975000
   -2.266469     1.369268     1.020958     1.200000     0.975000

--link1--
%chk=meso-TS_25_1_xp-095.chk
%nproc=24
%mem=48GB
#p uwb97xd guess=mix def2tzvp 
# scrf=(iefpcm,solvent=Cyclohexane,read) nosym 6d 10f 

endo-2
xp-pcm for eta=3

0 1
  6  -3.119867  -0.423059   0.242362 
  6  -0.399464  -0.121031  -0.665456 
  1  -4.102983  -0.545295   0.679967 
  1   0.332815  -0.116775  -1.477337 
  6   1.102005   1.439151   0.627583 
  6   0.399464   0.121031   0.665456 
  1   0.570347   2.335794   0.919988 
  1  -0.332815   0.116775   1.477337 
  6   1.424818  -0.986752   0.942031 
  1   1.823276  -0.830898   1.947861 
  1   0.940841  -1.964613   0.940308 
  6   2.393506   1.531561   0.139068 
  1   2.848769   2.511456   0.044365 
  6   3.119867   0.423059  -0.242362 
  1   4.102983   0.545295  -0.679967 
  6   2.585761  -0.961115  -0.052535 
  1   2.266469  -1.369268  -1.020958 
  1   3.384717  -1.624588   0.289923 
  6  -1.102005  -1.439151  -0.627583 
  1  -0.570347  -2.335794  -0.919988 
  6  -2.393506  -1.531561  -0.139068 
  1  -2.848769  -2.511456  -0.044365 
  6  -1.424818   0.986752  -0.942031 
  1  -0.940841   1.964613  -0.940309 
  1  -1.823276   0.830898  -1.947861 
  6  -2.585761   0.961115   0.052535 
  1  -3.384717   1.624588  -0.289923 
  1  -2.266469   1.369268   1.020958 

qrep pcmdoc geomview  nodis nocav g03defaults tsare=0.075 
nsfe=28
NVESolv=36  SolvMW=84.1595   Rsolv=2.815 
eps=2.39339884323873 RhoS=1.4620813611373

   -3.119867    -0.423059     0.242362     1.700000     0.950000
   -0.399464    -0.121031    -0.665456     1.700000     0.950000
   -4.102983    -0.545295     0.679967     1.200000     0.950000
    0.332815    -0.116775    -1.477337     1.200000     0.950000
    1.102005     1.439151     0.627583     1.700000     0.950000
    0.399464     0.121031     0.665456     1.700000     0.950000
    0.570347     2.335794     0.919988     1.200000     0.950000
   -0.332815     0.116775     1.477337     1.200000     0.950000
    1.424818    -0.986752     0.942031     1.700000     0.950000
    1.823276    -0.830898     1.947861     1.200000     0.950000
    0.940841    -1.964613     0.940308     1.200000     0.950000
    2.393506     1.531561     0.139068     1.700000     0.950000
    2.848769     2.511456     0.044365     1.200000     0.950000
    3.119867     0.423059    -0.242362     1.700000     0.950000
    4.102983     0.545295    -0.679967     1.200000     0.950000
    2.585761    -0.961115    -0.052535     1.700000     0.950000
    2.266469    -1.369268    -1.020958     1.200000     0.950000
    3.384717    -1.624588     0.289923     1.200000     0.950000
   -1.102005    -1.439151    -0.627583     1.700000     0.950000
   -0.570347    -2.335794    -0.919988     1.200000     0.950000
   -2.393506    -1.531561    -0.139068     1.700000     0.950000
   -2.848769    -2.511456    -0.044365     1.200000     0.950000
   -1.424818     0.986752    -0.942031     1.700000     0.950000
   -0.940841     1.964613    -0.940309     1.200000     0.950000
   -1.823276     0.830898    -1.947861     1.200000     0.950000
   -2.585761     0.961115     0.052535     1.700000     0.950000
   -3.384717     1.624588    -0.289923     1.200000     0.950000
   -2.266469     1.369268     1.020958     1.200000     0.950000

